%chk=test.chk
#p opt guess=read stable=opt chkbasis geom=check

Gaussian input file generated by gausspimom (stability check)

0 1

