 Set GAUSS_MDEF to "92GB".
 Set GAUSS_PDEF to "56".
 Entering Gaussian System, Link 0=gdv
 Initial command:
 /home/hhratchian/gaussian/gdv-20250101-j30+/gdv/local/l1.exe "/scratch/aaboutaka/1590310/Gau-3603650.inp" -scrdir="/scratch/aaboutaka/1590310/"
 Default is to use a total of  56 processors:
                               56 via shared-memory
                                1 via Linda
 Entering Link 1 = /home/hhratchian/gaussian/gdv-20250101-j30+/gdv/local/l1.exe PID=   3603651.
  
 Copyright (c) 1988-2024, Gaussian, Inc.  All Rights Reserved.
  
 This is the private, development version of
 the Gaussian(R) DV system of programs. It is based on
 the Gaussian(R) 16 system (copyright 2016, Gaussian, Inc.),
 the Gaussian(R) 09 system (copyright 2009, Gaussian, Inc.),
 the Gaussian(R) 03 system (copyright 2003, Gaussian, Inc.),
 the Gaussian(R) 98 system (copyright 1998, Gaussian, Inc.),
 the Gaussian(R) 94 system (copyright 1995, Gaussian, Inc.),
 the Gaussian 92(TM) system (copyright 1992, Gaussian, Inc.),
 the Gaussian 90(TM) system (copyright 1990, Gaussian, Inc.),
 the Gaussian 88(TM) system (copyright 1988, Gaussian, Inc.),
 the Gaussian 86(TM) system (copyright 1986, Carnegie Mellon
 University), and the Gaussian 82(TM) system (copyright 1983,
 Carnegie Mellon University). Gaussian is a federally registered
 trademark of Gaussian, Inc.
  
 This software contains proprietary and confidential information,
 including trade secrets, belonging to Gaussian, Inc.
  
 This software is provided under written license and may be
 used, copied, transmitted, or stored only in accord with that
 written license.
  
 The following legend is applicable only to US Government
 contracts under FAR:
  
                    RESTRICTED RIGHTS LEGEND
  
 Use, reproduction and disclosure by the US Government is
 subject to restrictions as set forth in subparagraphs (a)
 and (c) of the Commercial Computer Software - Restricted
 Rights clause in FAR 52.227-19.
  
 Gaussian, Inc.
 340 Quinnipiac St., Bldg. 40, Wallingford CT 06492
  
  
 ---------------------------------------------------------------
 Warning -- This program may not be used in any manner that
 competes with the business of Gaussian, Inc. or will provide
 assistance to any competitor of Gaussian, Inc.  The licensee
 of this program is prohibited from giving any competitor of
 Gaussian, Inc. access to this program.  By using this program,
 the user acknowledges that Gaussian, Inc. is engaged in the
 business of creating and licensing software in the field of
 computational chemistry and represents and warrants to the
 licensee that it is not a competitor of Gaussian, Inc. and that
 it will not use this program in any manner prohibited above.
 ---------------------------------------------------------------
  

 Cite this work as:
 Gaussian Development Version, Revision J.30+,
 M. J. Frisch, G. W. Trucks, G. Scalmani, J. R. Cheeseman, X. Li, 
 J. Bloino, B. G. Janesko, A. V. Marenich, J. Zheng, F. Lipparini, 
 A. Jenkins, A. Liu, H. Liu, H. B. Schlegel, G. E. Scuseria, 
 M. A. Robb, V. Barone, G. A. Petersson, H. Nakatsuji, B. Mennucci, 
 C. Adamo, N. Rega, M. Caricato, H. P. Hratchian, J. V. Ortiz, 
 F. Pawlowski, A. F. Izmaylov, H. Hu, C. Liao, J. L. Sonnenberg, 
 D. Williams-Young, F. Ding, R. Gomperts, F. Egidi, J. Goings, 
 B. Peng, A. Petrone, T. Henderson, D. Ranasinghe, V. G. Zakrzewski, 
 J. Gao, G. Zheng, W. Liang, M. Hada, M. Ehara, K. Toyota, R. Fukuda, 
 J. Hasegawa, M. Ishida, T. Nakajima, Y. Honda, O. Kitao, H. Nakai, 
 T. Vreven, K. Throssell, J. A. Montgomery, Jr., J. E. Peralta, 
 F. Ogliaro, M. J. Bearpark, J. J. Heyd, E. N. Brothers, K. N. Kudin, 
 V. N. Staroverov, T. A. Keith, R. Kobayashi, J. Normand, 
 K. Raghavachari, A. P. Rendell, J. C. Burant, S. S. Iyengar, 
 M. Cossi, J. M. Millam, M. Klene, R. Cammi, R. L. Martin, O. Farkas, 
 J. B. Foresman, and D. J. Fox, Gaussian, Inc., Wallingford CT, 2024.
 
 *******************************************
 Gaussian DV:  ES64L-GDVRevJ.30+ 18-Dec-2024
                  3-Sep-2025 
 *******************************************
 %chk=H2_CAM-B3LYP_6-31+Gdp_q0_m1.chk
 ----------------------------------------------------------
 #p CAM-B3LYP/6-31+G(d,p) stable=opt scf=novaracc guess=mix
 ----------------------------------------------------------
 1/37=210000000,38=1,172=1/1;
 2/12=2/2;
 3/5=1,6=6,7=1011,11=2,25=1,30=1,74=-40/1,2,3;
 4/13=-1/1;
 5/5=2,38=1/2;
 6/7=2,8=2,9=2,10=2,28=1/1;
 8/6=1,10=90,11=11/1;
 9/8=-3,42=1,46=1/14;
 5/5=2,8=3,17=40,38=1/8(-2);
 6/7=2,8=2,9=2,10=2,28=1/1;
 99/5=1,9=1/99;
 Leave Link    1 at Wed Sep  3 17:12:46 2025, MaxMem=           0 cpu:               0.2 elap:               0.0
 (Enter /home/hhratchian/gaussian/gdv-20250101-j30+/gdv/local/l101.exe)
 
  Hrant - IAPOps =                         0
  Hrant - IAPOp1 =                         0
  Hrant - IAPOp2 =                         0
  Hrant - DoAP   =   F
 
 -----------------------------------------------------
 H2 — CAM-B3LYP/6-31+G(d,p) q=0 m=1 [1/3: Stability]
 -----------------------------------------------------
 Symbolic Z-matrix:
 Charge =     0 Multiplicity =     1
 H                     0.        0.        0. 
 H                     0.        0.        0.74 
 
 ITRead=  0  0
 MicOpt= -1 -1
 NAtoms=      2 NQM=        2 NQMF=       0 NMMI=      0 NMMIF=      0
                NMic=       0 NMicF=      0.
                    Isotopes and Nuclear Properties:
 (Nuclear quadrupole moments (NQMom) in fm**2, nuclear magnetic moments (NMagM)
  in nuclear magnetons)

  Atom         1           2
 IAtWgt=           1           1
 AtmWgt=   1.0078250   1.0078250
 NucSpn=           1           1
 AtZEff=   -0.000000   -0.000000
 NQMom=    0.0000000   0.0000000
 NMagM=    2.7928460   2.7928460
 AtZNuc=   1.0000000   1.0000000
 Leave Link  101 at Wed Sep  3 17:12:46 2025, MaxMem= 12348030976 cpu:               0.3 elap:               0.1
 (Enter /home/hhratchian/gaussian/gdv-20250101-j30+/gdv/l202.exe)
                          Input orientation:                          
 ---------------------------------------------------------------------
 Center     Atomic      Atomic             Coordinates (Angstroms)
 Number     Number       Type             X           Y           Z
 ---------------------------------------------------------------------
      1          1           0        0.000000    0.000000    0.000000
      2          1           0        0.000000    0.000000    0.740000
 ---------------------------------------------------------------------
 Stoichiometry    H2
 Framework group  D*H[C*(H.H)]
 Deg. of freedom     1
 Full point group                 D*H     NOp   8
 Largest Abelian subgroup         D2H     NOp   8
 Largest concise Abelian subgroup C2      NOp   2
                         Standard orientation:                         
 ---------------------------------------------------------------------
 Center     Atomic      Atomic             Coordinates (Angstroms)
 Number     Number       Type             X           Y           Z
 ---------------------------------------------------------------------
      1          1           0        0.000000    0.000000    0.370000
      2          1           0        0.000000    0.000000   -0.370000
 ---------------------------------------------------------------------
 Rotational constants (GHZ):           0.0000000        1831.4649542        1831.4649542
 Leave Link  202 at Wed Sep  3 17:12:46 2025, MaxMem= 12348030976 cpu:               0.3 elap:               0.0
 (Enter /home/hhratchian/gaussian/gdv-20250101-j30+/gdv/local/l301.exe)
 Standard basis: 6-31+G(d,p) (6D, 7F)
 Ernie: Thresh=  0.10000D-02 Tol=  0.10000D-05 Strict=F.
 There are     3 symmetry adapted cartesian basis functions of AG  symmetry.
 There are     0 symmetry adapted cartesian basis functions of B1G symmetry.
 There are     1 symmetry adapted cartesian basis functions of B2G symmetry.
 There are     1 symmetry adapted cartesian basis functions of B3G symmetry.
 There are     0 symmetry adapted cartesian basis functions of AU  symmetry.
 There are     3 symmetry adapted cartesian basis functions of B1U symmetry.
 There are     1 symmetry adapted cartesian basis functions of B2U symmetry.
 There are     1 symmetry adapted cartesian basis functions of B3U symmetry.
 There are     3 symmetry adapted basis functions of AG  symmetry.
 There are     0 symmetry adapted basis functions of B1G symmetry.
 There are     1 symmetry adapted basis functions of B2G symmetry.
 There are     1 symmetry adapted basis functions of B3G symmetry.
 There are     0 symmetry adapted basis functions of AU  symmetry.
 There are     3 symmetry adapted basis functions of B1U symmetry.
 There are     1 symmetry adapted basis functions of B2U symmetry.
 There are     1 symmetry adapted basis functions of B3U symmetry.
    10 basis functions,    14 primitive gaussians,    10 cartesian basis functions
     1 alpha electrons        1 beta electrons
       nuclear repulsion energy         0.7151043391 Hartrees.
 IExCor=   2004019 DFT=T Ex+Corr=CAM-B3LYP ScaHFX=  1.000000
 ScaDFX=  1.000000  1.000000  1.000000  0.810000  1.000000  0.000000
 ScaDFX=  0.000000  0.000000  0.000000  0.000000  0.000000  0.000000
 Grid=UltraFine IRanWt=     -1 IRanGd=            0 ICorTp=0 IEDCtl=  2004
 HFx  wShort=  0.000000 wLong=  0.330000 cFull=  0.190000 cShort=  0.000000 cLong=  0.460000
 DFx  wShort=  0.330000 wLong=  0.000000 cFull=  0.350000 cShort=  0.460000 cLong=  0.000000
 NAtoms=    2 NActive=    2 NUniq=    1 SFac= 4.00D+00 NAtFMM=   60 NAOKFM=F Big=F
 Integral buffers will be    131072 words long.
 Raffenetti 2 integral format.
 Two-electron integral symmetry is turned on.
 Leave Link  301 at Wed Sep  3 17:12:47 2025, MaxMem= 12348030976 cpu:               0.2 elap:               0.1
 (Enter /home/hhratchian/gaussian/gdv-20250101-j30+/gdv/l302.exe)
 NPDir=0 NMtPBC=     1 NCelOv=     1 NCel=       1 NClECP=     1 NCelD=      1
         NCelK=      1 NCelE2=     1 NClLst=     1 CellRange=     0.0.
 One-electron integrals computed using PRISM.
 One-electron integral symmetry used in STVInt
 NBasis=    10 RedAO= T EigKep=  9.62D-02  NBF=     3     0     1     1     0     3     1     1
 NBsUse=    10 1.00D-06 EigRej= -1.00D+00 NBFU=     3     0     1     1     0     3     1     1
 Precomputing XC quadrature grid using
 IXCGrd=   9 Grid=UltraFine IRanWt=          -1 IRanGd=           0 AccXCQ= 0.00D+00.
 Generated NRdTot=       0 NPtTot=       45181 NUsed=           0 NTot=          64
 NSgBfM=    10    10    10    10    10 MxSgAt=     2 MxSgA2=     2 SizInc=   0.000
 NMBTot=      427 MaxBatPerAtom=       80 MaxMicBPerAtom=      215 NBfPt=              380295.
 Leave Link  302 at Wed Sep  3 17:12:47 2025, MaxMem= 12348030976 cpu:               2.1 elap:               0.1
 (Enter /home/hhratchian/gaussian/gdv-20250101-j30+/gdv/l303.exe)
 DipDrv:  MaxL=1.
 Leave Link  303 at Wed Sep  3 17:12:47 2025, MaxMem= 12348030976 cpu:               0.2 elap:               0.0
 (Enter /home/hhratchian/gaussian/gdv-20250101-j30+/gdv/l401.exe)
 ExpMin= 1.61D-01 ExpMax= 1.87D+01 ExpMxC= 1.87D+01 IAcc=3 Grid=UltraFine AccDes= 0.00D+00
 Harris functional with IExCor=10009 and Grid=UltraFine diagonalized for initial guess.
 HarFok:  IExCor=   10009 AccDes= 0.00D+00 Grid=UltraFine IDoV= 1 UseB2=F ITyADJ=14 ICtDFT=  3500011
 FoFCou: FMM=F IPFlag=           0 FMFlag=      100000 FMFlg1=           0
         NFxFlg=           0 DoJE=T BraDBF=F KetDBF=T FulRan=T
         wScrn=  0.000000 ICntrl=       500 IOpCl=  0 I1Cent=   200000004 NGrid=           0
         NMat0=    1 NMatS0=      1 NMatT0=    0 NMatD0=    1 NMtDS0=    0 NMtDT0=    0
 Petite list used in FoFCou.
 Harris En= -1.18004217925571    
 JPrj=0 DoOrth=F DoCkMO=T.
 Mixing orbitals, IMix= 1 IMixAn=  0 NRI=1 NE=    1 Coef=  7.07106781D-01  7.07106781D-01
 Initial guess orbital symmetries:
       Occupied  (?A)
       Virtual   (?A) (SGG) (SGU) (PIU) (PIU) (SGG) (PIG) (PIG)
                 (SGU)
 Leave Link  401 at Wed Sep  3 17:12:47 2025, MaxMem= 12348030976 cpu:               3.2 elap:               0.1
 (Enter /home/hhratchian/gaussian/gdv-20250101-j30+/gdv/local/l502.exe)
 Keep R1 ints in memory in symmetry-blocked form, NReq=48371868.
 FoFCou: FMM=F IPFlag=           0 FMFlag=           0 FMFlg1=           0
         NFxFlg=           0 DoJE=F BraDBF=F KetDBF=F FulRan=T
         wScrn=  0.000000 ICntrl=       600 IOpCl=  0 I1Cent=           0 NGrid=           0
         NMat0=    1 NMatS0=     55 NMatT0=    0 NMatD0=    1 NMtDS0=    0 NMtDT0=    0
 Petite list used in FoFCou.
 Closed shell SCF:
 Using DIIS extrapolation, IDIIS=  1040.
 NGot= 12348030976 LenX= 12348027340 LenY= 12348026458
 Requested convergence on RMS density matrix=1.00D-08 within 128 cycles.
 Requested convergence on MAX density matrix=1.00D-06.
 Requested convergence on             energy=1.00D-06.
 No special actions if energy rises.
 An orbital has undefined symmetry, so N**3 symmetry is turned off.
 
  Hrant - CycOpn.
 

 Cycle   1  Pass 1  IDiag  1:
 Density matrix breaks symmetry, PCut= 1.00D-04
 Density matrix has no symmetry -- integrals replicated.
 E=-0.573747975926207    
 DIIS: error= 1.15D-01 at cycle   1 NSaved=   1.
 NSaved= 1 IEnMin= 1 EnMin=-0.573747975926207     IErMin= 1 ErrMin= 1.15D-01
 ErrMax= 1.15D-01  0.00D+00 EMaxC= 1.00D-01 BMatC= 4.00D-02 BMatP= 4.00D-02
 Rises=F IDIUse=3 WtCom= 0.00D+00 WtEn= 1.00D+00
 Coeff-Com:  0.100D+01
 Coeff-En:   0.100D+01
 Coeff:      0.100D+01
 Gap=    -0.024 Goal=   None    Shift=    0.000
 GapD=   -0.024 DampG=0.250 DampE=0.250 DampFc=0.2500 IDamp=-1.
 Damping current iteration by 2.50D-01
 RMSDP=2.64D-01 MaxDP=1.54D+00              OVMax= 7.24D-01

 Cycle   2  Pass 1  IDiag  1:
 Density matrix breaks symmetry, PCut= 1.00D-04
 Density matrix has no symmetry -- integrals replicated.
 E=-0.710729352333991     Delta-E=       -0.136981376408 Rises=F Damp=T AM=F Ri=F Fa=F
 DIIS: error= 8.58D-02 at cycle   2 NSaved=   2.
 NSaved= 2 IEnMin= 2 EnMin=-0.710729352333991     IErMin= 2 ErrMin= 8.58D-02
 ErrMax= 8.58D-02  0.00D+00 EMaxC= 1.00D-01 BMatC= 2.32D-02 BMatP= 4.00D-02
 Rises=F IDIUse=3 WtCom= 1.42D-01 WtEn= 8.58D-01
 Coeff-Com: -0.267D+01 0.367D+01
 Coeff-En:   0.000D+00 0.100D+01
 Coeff:     -0.380D+00 0.138D+01
 Gap=     0.574 Goal=   None    Shift=    0.000
 RMSDP=1.97D-01 MaxDP=1.14D+00 DE=-1.37D-01 OVMax= 4.18D-02

 Cycle   3  Pass 1  IDiag  1:
 Density matrix breaks symmetry, PCut= 1.00D-04
 Density matrix has no symmetry -- integrals replicated.
 E= -1.16397273801750     Delta-E=       -0.453243385684 Rises=F Damp=F AM=F Ri=F Fa=F
 DIIS: error= 2.24D-02 at cycle   3 NSaved=   3.
 NSaved= 3 IEnMin= 3 EnMin= -1.16397273801750     IErMin= 3 ErrMin= 2.24D-02
 ErrMax= 2.24D-02  0.00D+00 EMaxC= 1.00D-01 BMatC= 2.37D-03 BMatP= 2.32D-02
 Rises=F IDIUse=3 WtCom= 7.76D-01 WtEn= 2.24D-01
 Coeff-Com: -0.411D+00 0.653D+00 0.757D+00
 Coeff-En:   0.000D+00 0.000D+00 0.100D+01
 Coeff:     -0.319D+00 0.507D+00 0.812D+00
 Gap=     0.638 Goal=   None    Shift=    0.000
 RMSDP=6.65D-03 MaxDP=3.27D-02 DE=-4.53D-01 OVMax= 4.15D-02

 Cycle   4  Pass 1  IDiag  1:
 Density matrix breaks symmetry, PCut= 1.00D-04
 Density matrix has no symmetry -- integrals replicated.
 E= -1.16975673715255     Delta-E=       -0.005783999135 Rises=F Damp=F AM=F Ri=F Fa=F
 DIIS: error= 3.83D-03 at cycle   4 NSaved=   4.
 NSaved= 4 IEnMin= 4 EnMin= -1.16975673715255     IErMin= 4 ErrMin= 3.83D-03
 ErrMax= 3.83D-03  0.00D+00 EMaxC= 1.00D-01 BMatC= 8.13D-05 BMatP= 2.37D-03
 Rises=F IDIUse=3 WtCom= 9.76D-01 WtEn= 2.37D-02
 Coeff-Com: -0.611D-01 0.411D-01-0.150D+00 0.117D+01
 Coeff-En:   0.000D+00 0.000D+00 0.000D+00 0.100D+01
 Coeff:     -0.597D-01 0.401D-01-0.146D+00 0.117D+01
 Gap=     0.657 Goal=   None    Shift=    0.000
 RMSDP=2.89D-03 MaxDP=1.35D-02 DE=-5.78D-03 OVMax= 1.31D-02

 Cycle   5  Pass 1  IDiag  1:
 Density matrix breaks symmetry, PCut= 1.00D-04
 Density matrix has no symmetry -- integrals replicated.
 E= -1.17003586832372     Delta-E=       -0.000279131171 Rises=F Damp=F AM=F Ri=F Fa=F
 DIIS: error= 8.52D-04 at cycle   5 NSaved=   5.
 NSaved= 5 IEnMin= 5 EnMin= -1.17003586832372     IErMin= 5 ErrMin= 8.52D-04
 ErrMax= 8.52D-04  0.00D+00 EMaxC= 1.00D-01 BMatC= 2.69D-06 BMatP= 8.13D-05
 Rises=F IDIUse=3 WtCom= 9.98D-01 WtEn= 2.49D-03
 Coeff-Com: -0.340D-01 0.524D-01 0.375D-01-0.327D+00 0.127D+01
 Coeff-En:   0.000D+00 0.000D+00 0.000D+00 0.000D+00 0.100D+01
 Coeff:     -0.339D-01 0.523D-01 0.374D-01-0.327D+00 0.127D+01
 Gap=     0.653 Goal=   None    Shift=    0.000
 RMSDP=1.70D-04 MaxDP=8.29D-04 DE=-2.79D-04 OVMax= 1.30D-03

 Cycle   6  Pass 1  IDiag  1:
 Density matrix breaks symmetry, PCut= 1.00D-04
 Density matrix has no symmetry -- integrals replicated.
 E= -1.17003838196072     Delta-E=       -0.000002513637 Rises=F Damp=F AM=F Ri=F Fa=F
 DIIS: error= 4.90D-04 at cycle   6 NSaved=   6.
 NSaved= 6 IEnMin= 6 EnMin= -1.17003838196072     IErMin= 6 ErrMin= 4.90D-04
 ErrMax= 4.90D-04  0.00D+00 EMaxC= 1.00D-01 BMatC= 8.99D-07 BMatP= 2.69D-06
 Rises=F IDIUse=3 WtCom= 1.00D+00 WtEn= 3.92D-04
 Coeff-Com: -0.136D-01 0.230D-01 0.218D-01-0.233D+00 0.545D+00 0.657D+00
 Coeff-En:   0.000D+00 0.000D+00 0.000D+00 0.000D+00 0.000D+00 0.100D+01
 Coeff:     -0.136D-01 0.230D-01 0.218D-01-0.233D+00 0.545D+00 0.657D+00
 Gap=     0.653 Goal=   None    Shift=    0.000
 RMSDP=7.46D-05 MaxDP=3.80D-04 DE=-2.51D-06 OVMax= 5.35D-04

 Cycle   7  Pass 1  IDiag  1:
 Density matrix breaks symmetry, PCut= 1.00D-04
 Density matrix has no symmetry -- integrals replicated.
 E= -1.17004000912675     Delta-E=       -0.000001627166 Rises=F Damp=F AM=F Ri=F Fa=F
 DIIS: error= 2.23D-04 at cycle   7 NSaved=   7.
 NSaved= 7 IEnMin= 7 EnMin= -1.17004000912675     IErMin= 7 ErrMin= 2.23D-04
 ErrMax= 2.23D-04  0.00D+00 EMaxC= 1.00D-01 BMatC= 1.65D-07 BMatP= 8.99D-07
 Rises=F IDIUse=3 WtCom= 1.00D+00 WtEn= 0.00D+00
 Coeff-Com: -0.889D-04 0.200D-03-0.659D-03 0.101D-01 0.304D-01-0.878D+00
 Coeff-Com:  0.184D+01
 Coeff-En:   0.000D+00 0.000D+00 0.000D+00 0.000D+00 0.000D+00 0.000D+00
 Coeff-En:   0.100D+01
 Coeff:     -0.889D-04 0.200D-03-0.659D-03 0.101D-01 0.304D-01-0.878D+00
 Coeff:      0.184D+01
 Gap=     0.653 Goal=   None    Shift=    0.000
 RMSDP=3.89D-05 MaxDP=1.92D-04 DE=-1.63D-06 OVMax= 3.57D-04

 Cycle   8  Pass 1  IDiag  1:
 E= -1.17003943726626     Delta-E=        0.000000571860 Rises=F Damp=F AM=F Ri=F Fa=F
 DIIS: error= 2.70D-06 at cycle   8 NSaved=   8.
 NSaved= 8 IEnMin= 7 EnMin= -1.17004000912675     IErMin= 8 ErrMin= 2.70D-06
 ErrMax= 2.70D-06  0.00D+00 EMaxC= 1.00D-01 BMatC= 1.61D-11 BMatP= 1.65D-07
 Rises=F IDIUse=1 WtCom= 1.00D+00 WtEn= 0.00D+00
 Coeff-Com: -0.860D-06 0.237D-05 0.173D-03-0.268D-02-0.356D-02 0.183D+00
 Coeff-Com: -0.391D+00 0.121D+01
 Coeff:     -0.860D-06 0.237D-05 0.173D-03-0.268D-02-0.356D-02 0.183D+00
 Coeff:     -0.391D+00 0.121D+01
 Gap=     0.653 Goal=   None    Shift=    0.000
 RMSDP=4.14D-07 MaxDP=1.82D-06 DE= 5.72D-07 OVMax= 3.93D-06

 Cycle   9  Pass 1  IDiag  1:
 E= -1.17004031955715     Delta-E=       -0.000000882291 Rises=F Damp=F AM=F Ri=F Fa=F
 DIIS: error= 9.38D-08 at cycle   9 NSaved=   9.
 NSaved= 9 IEnMin= 9 EnMin= -1.17004031955715     IErMin= 9 ErrMin= 9.38D-08
 ErrMax= 9.38D-08  0.00D+00 EMaxC= 1.00D-01 BMatC= 2.86D-14 BMatP= 1.61D-11
 Rises=F IDIUse=1 WtCom= 1.00D+00 WtEn= 0.00D+00
 Coeff-Com: -0.711D-07 0.204D-06 0.286D-05 0.521D-04-0.170D-03-0.596D-02
 Coeff-Com:  0.152D-01-0.309D+00 0.130D+01
 Coeff:     -0.711D-07 0.204D-06 0.286D-05 0.521D-04-0.170D-03-0.596D-02
 Coeff:      0.152D-01-0.309D+00 0.130D+01
 Gap=     0.653 Goal=   None    Shift=    0.000
 RMSDP=1.92D-08 MaxDP=9.26D-08 DE=-8.82D-07 OVMax= 1.47D-07

 Cycle  10  Pass 1  IDiag  1:
 E= -1.17004036756031     Delta-E=       -0.000000048003 Rises=F Damp=F AM=F Ri=F Fa=F
 DIIS: error= 1.82D-08 at cycle  10 NSaved=  10.
 NSaved=10 IEnMin=10 EnMin= -1.17004036756031     IErMin=10 ErrMin= 1.82D-08
 ErrMax= 1.82D-08  0.00D+00 EMaxC= 1.00D-01 BMatC= 1.14D-15 BMatP= 2.86D-14
 Rises=F IDIUse=1 WtCom= 1.00D+00 WtEn= 0.00D+00
 Coeff-Com:  0.206D-13-0.386D-13 0.285D-12-0.233D-11-0.115D-10 0.140D-09
 Coeff-Com: -0.236D-09 0.235D-03 0.164D+00 0.835D+00
 Coeff:      0.206D-13-0.386D-13 0.285D-12-0.233D-11-0.115D-10 0.140D-09
 Coeff:     -0.236D-09 0.235D-03 0.164D+00 0.835D+00
 Gap=     0.653 Goal=   None    Shift=    0.000
 RMSDP=2.97D-09 MaxDP=1.18D-08 DE=-4.80D-08 OVMax= 2.27D-08

 SCF Done:  E(RCAM-B3LYP) =  -1.17004036756     A.U. after   10 cycles
            NFock= 10  Conv=0.30D-08     -V/T= 2.0310
 KE=           1.134823 PE=          -3.638748 EE=           0.618781
 Leave Link  502 at Wed Sep  3 17:12:47 2025, MaxMem= 12348030976 cpu:               6.4 elap:               0.2
 (Enter /home/hhratchian/gaussian/gdv-20250101-j30+/gdv/l601.exe)
 Copying SCF densities to generalized density rwf, IOpCl= 0 IROHF=0.
 
 **********************************************************************
 
               Population analysis using the SCF Density.
 
 **********************************************************************
 
 Orbital symmetries:
       Occupied  (SGG)
       Virtual   (SGU) (SGG) (SGU) (PIU) (PIU) (SGG) (PIG) (PIG)
                 (SGU)
 The electronic state is 1-SGG.
 Alpha  occ. eigenvalues --       -0.49819
 Alpha virt. eigenvalues --        0.15500       0.63821       1.11052       1.75003       1.75003
 Alpha virt. eigenvalues --        2.46236       2.69662       2.69662       4.24691
          Condensed to atoms (all electrons):
               1          2
     1  H    0.587436   0.412564
     2  H    0.412564   0.587436
 Mulliken charges:
               1
     1  H    0.000000
     2  H    0.000000
 Sum of Mulliken charges=   0.00000
 Mulliken charges with hydrogens summed into heavy atoms:
               1
 Electronic spatial extent (au):  <R**2>=              5.1506
 Charge=              0.0000 electrons
 Dipole moment (field-independent basis, Debye):
    X=              0.0000    Y=             -0.0000    Z=             -0.0000  Tot=              0.0000
 Quadrupole moment (field-independent basis, Debye-Ang):
   XX=             -2.0451   YY=             -2.0451   ZZ=             -1.5224
   XY=             -0.0000   XZ=             -0.0000   YZ=              0.0000
 Traceless Quadrupole moment (field-independent basis, Debye-Ang):
   XX=             -0.1742   YY=             -0.1742   ZZ=              0.3484
   XY=             -0.0000   XZ=             -0.0000   YZ=              0.0000
 Octapole moment (field-independent basis, Debye-Ang**2):
  XXX=             -0.0000  YYY=             -0.0000  ZZZ=             -0.0000  XYY=             -0.0000
  XXY=             -0.0000  XXZ=             -0.0000  XZZ=             -0.0000  YZZ=             -0.0000
  YYZ=             -0.0000  XYZ=              0.0000
 Hexadecapole moment (field-independent basis, Debye-Ang**3):
 XXXX=             -1.9008 YYYY=             -1.9008 ZZZZ=             -2.7899 XXXY=             -0.0000
 XXXZ=              0.0000 YYYX=             -0.0000 YYYZ=              0.0000 ZZZX=              0.0000
 ZZZY=              0.0000 XXYY=             -0.6336 XXZZ=             -0.7966 YYZZ=             -0.7966
 XXYZ=              0.0000 YYXZ=              0.0000 ZZXY=             -0.0000
 N-N=           0.715104 E-N=          -3.638748  KE=           1.134823
 Symmetry AG   KE=           1.134823
 Symmetry B1G  KE=           0.000000
 Symmetry B2G  KE=           0.000000
 Symmetry B3G  KE=           0.000000
 Symmetry AU   KE=           0.000000
 Symmetry B1U  KE=          -0.000000
 Symmetry B2U  KE=           0.000000
 Symmetry B3U  KE=           0.000000
 No NMR shielding tensors so no spin-rotation constants.
 Leave Link  601 at Wed Sep  3 17:12:47 2025, MaxMem= 12348030976 cpu:               2.2 elap:               0.1
 (Enter /home/hhratchian/gaussian/gdv-20250101-j30+/gdv/l801.exe)
 DoSCS=F DFT=T ScalE2(SS,OS)=  1.000000  1.000000
 Range of M.O.s used for correlation:     1    10
 NBasis=    10 NAE=     1 NBE=     1 NFC=     0 NFV=     0
 NROrb=     10 NOA=     1 NOB=     1 NVA=     9 NVB=     9
 Leave Link  801 at Wed Sep  3 17:12:47 2025, MaxMem= 12348030976 cpu:               0.2 elap:               0.0
 (Enter /home/hhratchian/gaussian/gdv-20250101-j30+/gdv/l914.exe)
 RHF ground state
 Doing stability rather than CIS.
 DoSCS=F DFT=T ScalE2(SS,OS)=  1.000000  1.000000
   ScalD2(USS,UOS,TSS,TOS,w)=  1.000000  1.000000  1.000000  1.000000  1.000000
 Keep R1 and R2 ints in memory in symmetry-blocked form, NReq=57658911.
 FoFCou: FMM=F IPFlag=           0 FMFlag=           0 FMFlg1=           0
         NFxFlg=           0 DoJE=F BraDBF=F KetDBF=F FulRan=T
         wScrn=  0.000000 ICntrl=       600 IOpCl=  0 I1Cent=           0 NGrid=           0
         NMat0=    1 NMatS0=     55 NMatT0=    0 NMatD0=    1 NMtDS0=    0 NMtDT0=    0
 Petite list used in FoFCou.
 MDV= 12348030976 DFT=T IDoStb=1 Mixed=T DoRPA=F DoScal=F NonHer=F
 Making orbital integer symmetry assigments:
 Orbital symmetries:
       Occupied  (SGG)
       Virtual   (SGU) (SGG) (SGU) (PIU) (PIU) (SGG) (PIG) (PIG)
                 (SGU)
    18 initial guesses have been made.
 Convergence on wavefunction:    0.001000000000000
 Davidson Disk Diagonalization:  ConvIn= 1.00D-03 SkipCon=T Conv= 1.00D-03.
 Max sub-space:    72 initial roots:    36 roots to seek:     1 dimension of matrix:           18
 *** WARNING: Number of orthogonal guesses is           18
 Iteration     1 Dimension    18 NMult     0 NNew     18
 CISAX will form    18 AO SS matrices at one time.
 NMat=    18 NSing=     9 JSym2X= 2.
 New state      1 was old state      2
 Excitation Energies [eV] at current iteration:
 Root      1 :     8.822409329102532
 Root      2 :    16.826972167596949
 Root      3 :    20.788039932138513
 Root      4 :    31.716770745272420
 Root      5 :    32.352248530974457
 Root      6 :    44.081626390547477
 Root      7 :    46.905987519289987
 Root      8 :    46.905987519290051
 Root      9 :    59.384162510250796
 Root     10 :    59.384162510250896
 Root     11 :    66.173785963654197
 Root     12 :    73.022290376986092
 Root     13 :    73.022290376986220
 Root     14 :    74.833119668655016
 Root     15 :    79.231853272957466
 Root     16 :    79.231853272957679
 Root     17 :   113.897950191849745
 Root     18 :   119.920646436207392
 Convergence achieved for final wavefunctions.
 1PDM for each excited state written to RWF  633
 Ground to excited state transition densities written to RWF  633

 ***********************************************************************
 Stability analysis using <AA,BB:AA,BB> singles matrix:
 ***********************************************************************

 Eigenvectors of the stability matrix:
 
 Eigenvector   1:      Triplet-SGU  Eigenvalue= 0.3242176  <S**2>=2.000
       1 ->  2         0.69651
       1 ->  4        -0.12182
 The wavefunction is stable under the perturbations considered.
 Leave Link  914 at Wed Sep  3 17:12:47 2025, MaxMem= 12348030976 cpu:               4.3 elap:               0.2
 (Enter /home/hhratchian/gaussian/gdv-20250101-j30+/gdv/l508.exe)
 The wavefunction is already stable.
 Leave Link  508 at Wed Sep  3 17:12:47 2025, MaxMem= 12348030976 cpu:               0.1 elap:               0.0
 (Enter /home/hhratchian/gaussian/gdv-20250101-j30+/gdv/l601.exe)
 Copying SCF densities to generalized density rwf, IOpCl= 0 IROHF=0.
 
 **********************************************************************
 
               Population analysis using the SCF Density.
 
 **********************************************************************
 
 Orbital symmetries:
       Occupied  (SGG)
       Virtual   (SGU) (SGG) (SGU) (PIU) (PIU) (SGG) (PIG) (PIG)
                 (SGU)
 The electronic state is 1-SGG.
 Alpha  occ. eigenvalues --       -0.49819
 Alpha virt. eigenvalues --        0.15500       0.63821       1.11052       1.75003       1.75003
 Alpha virt. eigenvalues --        2.46236       2.69662       2.69662       4.24691
          Condensed to atoms (all electrons):
               1          2
     1  H    0.587436   0.412564
     2  H    0.412564   0.587436
 Mulliken charges:
               1
     1  H    0.000000
     2  H    0.000000
 Sum of Mulliken charges=   0.00000
 Mulliken charges with hydrogens summed into heavy atoms:
               1
 Electronic spatial extent (au):  <R**2>=              5.1506
 Charge=              0.0000 electrons
 Dipole moment (field-independent basis, Debye):
    X=              0.0000    Y=             -0.0000    Z=             -0.0000  Tot=              0.0000
 Quadrupole moment (field-independent basis, Debye-Ang):
   XX=             -2.0451   YY=             -2.0451   ZZ=             -1.5224
   XY=             -0.0000   XZ=             -0.0000   YZ=              0.0000
 Traceless Quadrupole moment (field-independent basis, Debye-Ang):
   XX=             -0.1742   YY=             -0.1742   ZZ=              0.3484
   XY=             -0.0000   XZ=             -0.0000   YZ=              0.0000
 Octapole moment (field-independent basis, Debye-Ang**2):
  XXX=             -0.0000  YYY=             -0.0000  ZZZ=             -0.0000  XYY=             -0.0000
  XXY=             -0.0000  XXZ=             -0.0000  XZZ=             -0.0000  YZZ=             -0.0000
  YYZ=             -0.0000  XYZ=              0.0000
 Hexadecapole moment (field-independent basis, Debye-Ang**3):
 XXXX=             -1.9008 YYYY=             -1.9008 ZZZZ=             -2.7899 XXXY=             -0.0000
 XXXZ=              0.0000 YYYX=             -0.0000 YYYZ=              0.0000 ZZZX=              0.0000
 ZZZY=              0.0000 XXYY=             -0.6336 XXZZ=             -0.7966 YYZZ=             -0.7966
 XXYZ=              0.0000 YYXZ=              0.0000 ZZXY=             -0.0000
 N-N=           0.715104 E-N=          -3.638748  KE=           1.134823
 Symmetry AG   KE=           1.134823
 Symmetry B1G  KE=           0.000000
 Symmetry B2G  KE=           0.000000
 Symmetry B3G  KE=           0.000000
 Symmetry AU   KE=           0.000000
 Symmetry B1U  KE=          -0.000000
 Symmetry B2U  KE=           0.000000
 Symmetry B3U  KE=           0.000000
 No NMR shielding tensors so no spin-rotation constants.
 Leave Link  601 at Wed Sep  3 17:12:47 2025, MaxMem= 12348030976 cpu:               2.1 elap:               0.1
 (Enter /home/hhratchian/gaussian/gdv-20250101-j30+/gdv/local/l9999.exe)
 Unable to Open any file for archive entry.
 1\1\GINC-NODE035\Stability\RCAM-B3LYP\6-31+G(d,p)\H2\AABOUTAKA\03-Sep-
 2025\0\\#p CAM-B3LYP/6-31+G(d,p) stable=opt scf=novaracc guess=mix\\H2
  — CAM-B3LYP/6-31+G(d,p) q=0 m=1 [1/3: Stability]\\0,1\H,0,0.,0.,0.\
 H,0,0.,0.,0.74\\Version=ES64L-GDVRevJ.30+\State=1-SGG\HF=-1.1700404\RM
 SD=2.971e-09\Dipole=0.,0.,0.\Quadrupole=-0.1295265,-0.1295265,0.259053
 ,0.,0.,0.\PG=D*H [C*(H1.H1)]\\@
 The archive entry for this job was punched.


 IT IS WELL TO REMEMBER THAT MAN IS A PART OF NATURE AND THAT HIS WORKS,
 WHATEVER THEY MAY BE, ARE NO MORE "UNNATURAL" THAN 
 THE FLIGHT OF AN EAGLE OR THE PASSAGE OF A TORNADO.

                                    -- CHARLES MCCARRY IN "THE GREAT SOUTHWEST"
 Job cpu time:       0 days  0 hours  0 minutes 22.6 seconds.
 Elapsed time:       0 days  0 hours  0 minutes  1.1 seconds.
 File lengths (MBytes):  RWF=     22 Int=      0 D2E=      0 Chk=      2 Scr=      2
 Normal termination of Gaussian DV at Wed Sep  3 17:12:48 2025.
 Initial command:
 /home/hhratchian/gaussian/gdv-20250101-j30+/gdv/local/l1.exe "/scratch/aaboutaka/1590310/Gau-3603650.inp" -scrdir="/scratch/aaboutaka/1590310/"
 Default is to use a total of  56 processors:
                               56 via shared-memory
                                1 via Linda
 Entering Link 1 = /home/hhratchian/gaussian/gdv-20250101-j30+/gdv/local/l1.exe PID=   3604422.
  
 Copyright (c) 1988-2024, Gaussian, Inc.  All Rights Reserved.
  
 This is the private, development version of
 the Gaussian(R) DV system of programs. It is based on
 the Gaussian(R) 16 system (copyright 2016, Gaussian, Inc.),
 the Gaussian(R) 09 system (copyright 2009, Gaussian, Inc.),
 the Gaussian(R) 03 system (copyright 2003, Gaussian, Inc.),
 the Gaussian(R) 98 system (copyright 1998, Gaussian, Inc.),
 the Gaussian(R) 94 system (copyright 1995, Gaussian, Inc.),
 the Gaussian 92(TM) system (copyright 1992, Gaussian, Inc.),
 the Gaussian 90(TM) system (copyright 1990, Gaussian, Inc.),
 the Gaussian 88(TM) system (copyright 1988, Gaussian, Inc.),
 the Gaussian 86(TM) system (copyright 1986, Carnegie Mellon
 University), and the Gaussian 82(TM) system (copyright 1983,
 Carnegie Mellon University). Gaussian is a federally registered
 trademark of Gaussian, Inc.
  
 This software contains proprietary and confidential information,
 including trade secrets, belonging to Gaussian, Inc.
  
 This software is provided under written license and may be
 used, copied, transmitted, or stored only in accord with that
 written license.
  
 The following legend is applicable only to US Government
 contracts under FAR:
  
                    RESTRICTED RIGHTS LEGEND
  
 Use, reproduction and disclosure by the US Government is
 subject to restrictions as set forth in subparagraphs (a)
 and (c) of the Commercial Computer Software - Restricted
 Rights clause in FAR 52.227-19.
  
 Gaussian, Inc.
 340 Quinnipiac St., Bldg. 40, Wallingford CT 06492
  
  
 ---------------------------------------------------------------
 Warning -- This program may not be used in any manner that
 competes with the business of Gaussian, Inc. or will provide
 assistance to any competitor of Gaussian, Inc.  The licensee
 of this program is prohibited from giving any competitor of
 Gaussian, Inc. access to this program.  By using this program,
 the user acknowledges that Gaussian, Inc. is engaged in the
 business of creating and licensing software in the field of
 computational chemistry and represents and warrants to the
 licensee that it is not a competitor of Gaussian, Inc. and that
 it will not use this program in any manner prohibited above.
 ---------------------------------------------------------------
  

 Cite this work as:
 Gaussian Development Version, Revision J.30+,
 M. J. Frisch, G. W. Trucks, G. Scalmani, J. R. Cheeseman, X. Li, 
 J. Bloino, B. G. Janesko, A. V. Marenich, J. Zheng, F. Lipparini, 
 A. Jenkins, A. Liu, H. Liu, H. B. Schlegel, G. E. Scuseria, 
 M. A. Robb, V. Barone, G. A. Petersson, H. Nakatsuji, B. Mennucci, 
 C. Adamo, N. Rega, M. Caricato, H. P. Hratchian, J. V. Ortiz, 
 F. Pawlowski, A. F. Izmaylov, H. Hu, C. Liao, J. L. Sonnenberg, 
 D. Williams-Young, F. Ding, R. Gomperts, F. Egidi, J. Goings, 
 B. Peng, A. Petrone, T. Henderson, D. Ranasinghe, V. G. Zakrzewski, 
 J. Gao, G. Zheng, W. Liang, M. Hada, M. Ehara, K. Toyota, R. Fukuda, 
 J. Hasegawa, M. Ishida, T. Nakajima, Y. Honda, O. Kitao, H. Nakai, 
 T. Vreven, K. Throssell, J. A. Montgomery, Jr., J. E. Peralta, 
 F. Ogliaro, M. J. Bearpark, J. J. Heyd, E. N. Brothers, K. N. Kudin, 
 V. N. Staroverov, T. A. Keith, R. Kobayashi, J. Normand, 
 K. Raghavachari, A. P. Rendell, J. C. Burant, S. S. Iyengar, 
 M. Cossi, J. M. Millam, M. Klene, R. Cammi, R. L. Martin, O. Farkas, 
 J. B. Foresman, and D. J. Fox, Gaussian, Inc., Wallingford CT, 2024.
 
 *******************************************
 Gaussian DV:  ES64L-GDVRevJ.30+ 18-Dec-2024
                  3-Sep-2025 
 *******************************************
 %chk=H2_CAM-B3LYP_6-31+Gdp_q0_m1.chk
 ----------------------------------------------------------------------
 #p CAM-B3LYP guess=read chkbasis geom=allcheck Opt Freq SCF=(fermi, no
 varacc) int=superfinegrid
 ----------------------------------------------------------------------
 1/18=20,19=15,26=5,29=7,38=1/1,3;
 2/9=110,12=2/2;
 3/5=7,6=2,11=2,14=-4,25=1,30=1,67=1,71=1,74=-40,75=-7,116=-2/1,2,3;
 4/5=1/1;
 5/5=2,22=13,38=6/2;
 6/7=2,8=2,9=2,10=2,28=1/1;
 7//1,2,3,16;
 1/18=20,19=15,26=5/3(2);
 2/9=110/2;
 99//99;
 2/9=110/2;
 3/5=7,6=1,11=2,14=-2,25=1,30=1,71=1,74=-40,75=-7,82=7,187=7/1,2,3;
 4/5=5,16=3,69=1/1;
 5/5=2,22=13,38=1/2;
 7//1,2,3,16;
 1/18=20,19=15,26=5/3(-5);
 2/9=110/2;
 6/7=2,8=2,9=2,10=2,19=2,28=1/1;
 99/9=1/99;
 Leave Link    1 at Wed Sep  3 17:12:48 2025, MaxMem=           0 cpu:               0.2 elap:               0.0
 (Enter /home/hhratchian/gaussian/gdv-20250101-j30+/gdv/local/l101.exe)
 
  Hrant - IAPOps =                         0
  Hrant - IAPOp1 =                         0
  Hrant - IAPOp2 =                         0
  Hrant - DoAP   =   F
 
 Structure from the checkpoint file:  "H2_CAM-B3LYP_6-31+Gdp_q0_m1.chk"
 -----------------------------------------------------
 H2 — CAM-B3LYP/6-31+G(d,p) q=0 m=1 [1/3: Stability]
 -----------------------------------------------------
 Charge =     0 Multiplicity =     1
 Z-Matrix found in chk file.
 H,0,0.,0.,0.
 H,0,0.,0.,0.74
 
 Recover connectivity data from disk.
 Initializing the GIC definitions file.
 ITRead=  0  0
 MicOpt= -1 -1
 NAtoms=      2 NQM=        2 NQMF=       0 NMMI=      0 NMMIF=      0
                NMic=       0 NMicF=      0.
                    Isotopes and Nuclear Properties:
 (Nuclear quadrupole moments (NQMom) in fm**2, nuclear magnetic moments (NMagM)
  in nuclear magnetons)

  Atom         1           2
 IAtWgt=           1           1
 AtmWgt=   1.0078250   1.0078250
 NucSpn=           1           1
 AtZEff=    1.000000    1.000000
 NQMom=    0.0000000   0.0000000
 NMagM=    2.7928460   2.7928460
 AtZNuc=   1.0000000   1.0000000
 Leave Link  101 at Wed Sep  3 17:12:53 2025, MaxMem= 12348030976 cpu:               5.8 elap:               5.6
 (Enter /home/hhratchian/gaussian/gdv-20250101-j30+/gdv/l103.exe)

 GradGradGradGradGradGradGradGradGradGradGradGradGradGradGradGradGradGrad
 Berny optimization.
 Initialization pass.
                           ----------------------------
                           !    Initial Parameters    !
                           ! (Angstroms and Degrees)  !
 --------------------------                            --------------------------
 ! Name  Definition              Value          Derivative Info.                !
 --------------------------------------------------------------------------------
 ! R1    R(1,2)                  0.74           estimate D2E/DX2                !
 --------------------------------------------------------------------------------
 Trust Radius=3.00D-01 FncErr=1.00D-07 GrdErr=1.00D-07 EigMax=2.50D+02 EigMin=1.00D-04
 Number of steps in this run=     20 maximum allowed number of steps=    100.
 GradGradGradGradGradGradGradGradGradGradGradGradGradGradGradGradGradGrad

 Leave Link  103 at Wed Sep  3 17:12:54 2025, MaxMem= 12348030976 cpu:               0.1 elap:               0.0
 (Enter /home/hhratchian/gaussian/gdv-20250101-j30+/gdv/l202.exe)
                          Input orientation:                          
 ---------------------------------------------------------------------
 Center     Atomic      Atomic             Coordinates (Angstroms)
 Number     Number       Type             X           Y           Z
 ---------------------------------------------------------------------
      1          1           0        0.000000    0.000000    0.000000
      2          1           0        0.000000    0.000000    0.740000
 ---------------------------------------------------------------------
 Stoichiometry    H2
 Framework group  D*H[C*(H.H)]
 Deg. of freedom     1
 Full point group                 D*H     NOp   8
 RotChk:  IX=0 Diff= 0.00D+00
 Largest Abelian subgroup         D2H     NOp   8
 Largest concise Abelian subgroup C2      NOp   2
                         Standard orientation:                         
 ---------------------------------------------------------------------
 Center     Atomic      Atomic             Coordinates (Angstroms)
 Number     Number       Type             X           Y           Z
 ---------------------------------------------------------------------
      1          1           0        0.000000    0.000000    0.370000
      2          1           0        0.000000    0.000000   -0.370000
 ---------------------------------------------------------------------
 Rotational constants (GHZ):           0.0000000        1831.4649542        1831.4649542
 Leave Link  202 at Wed Sep  3 17:12:54 2025, MaxMem= 12348030976 cpu:               1.0 elap:               0.1
 (Enter /home/hhratchian/gaussian/gdv-20250101-j30+/gdv/local/l301.exe)
 Basis read from chk: "H2_CAM-B3LYP_6-31+Gdp_q0_m1.chk" (6D, 7F)
 No pseudopotential information found on chk file.
 There are     3 symmetry adapted cartesian basis functions of AG  symmetry.
 There are     0 symmetry adapted cartesian basis functions of B1G symmetry.
 There are     1 symmetry adapted cartesian basis functions of B2G symmetry.
 There are     1 symmetry adapted cartesian basis functions of B3G symmetry.
 There are     0 symmetry adapted cartesian basis functions of AU  symmetry.
 There are     3 symmetry adapted cartesian basis functions of B1U symmetry.
 There are     1 symmetry adapted cartesian basis functions of B2U symmetry.
 There are     1 symmetry adapted cartesian basis functions of B3U symmetry.
 There are     3 symmetry adapted basis functions of AG  symmetry.
 There are     0 symmetry adapted basis functions of B1G symmetry.
 There are     1 symmetry adapted basis functions of B2G symmetry.
 There are     1 symmetry adapted basis functions of B3G symmetry.
 There are     0 symmetry adapted basis functions of AU  symmetry.
 There are     3 symmetry adapted basis functions of B1U symmetry.
 There are     1 symmetry adapted basis functions of B2U symmetry.
 There are     1 symmetry adapted basis functions of B3U symmetry.
    10 basis functions,    14 primitive gaussians,    10 cartesian basis functions
     1 alpha electrons        1 beta electrons
       nuclear repulsion energy         0.7151043391 Hartrees.
 IExCor=   2004019 DFT=T Ex+Corr=CAM-B3LYP ScaHFX=  1.000000
 ScaDFX=  1.000000  1.000000  1.000000  0.810000  1.000000  0.000000
 ScaDFX=  0.000000  0.000000  0.000000  0.000000  0.000000  0.000000
 Grid=SuperFine IRanWt=     -1 IRanGd=            0 ICorTp=0 IEDCtl=  2004
 HFx  wShort=  0.000000 wLong=  0.330000 cFull=  0.190000 cShort=  0.000000 cLong=  0.460000
 DFx  wShort=  0.330000 wLong=  0.000000 cFull=  0.350000 cShort=  0.460000 cLong=  0.000000
 NAtoms=    2 NActive=    2 NUniq=    1 SFac= 4.00D+00 NAtFMM=   60 NAOKFM=F Big=F
 Integral buffers will be    131072 words long.
 Raffenetti 2 integral format.
 Two-electron integral symmetry is turned on.
 No density basis found on file 200724.
 Leave Link  301 at Wed Sep  3 17:12:54 2025, MaxMem= 12348030976 cpu:               0.2 elap:               0.1
 (Enter /home/hhratchian/gaussian/gdv-20250101-j30+/gdv/l302.exe)
 NPDir=0 NMtPBC=     1 NCelOv=     1 NCel=       1 NClECP=     1 NCelD=      1
         NCelK=      1 NCelE2=     1 NClLst=     1 CellRange=     0.0.
 One-electron integrals computed using PRISM.
 One-electron integral symmetry used in STVInt
 NBasis=    10 RedAO= T EigKep=  9.62D-02  NBF=     3     0     1     1     0     3     1     1
 NBsUse=    10 1.00D-06 EigRej= -1.00D+00 NBFU=     3     0     1     1     0     3     1     1
 Precomputing XC quadrature grid using
 IXCGrd=   9 Grid=SuperFine IRanWt=          -1 IRanGd=           0 AccXCQ= 0.00D+00.
 Generated NRdTot=       0 NPtTot=      124679 NUsed=           0 NTot=          64
 NSgBfM=    10    10    10    10    10 MxSgAt=     2 MxSgA2=     2 SizInc=   0.000
 NMBTot=      889 MaxBatPerAtom=      122 MaxMicBPerAtom=      445 NBfPt=             1040347.
 Leave Link  302 at Wed Sep  3 17:12:54 2025, MaxMem= 12348030976 cpu:               3.7 elap:               0.1
 (Enter /home/hhratchian/gaussian/gdv-20250101-j30+/gdv/l303.exe)
 DipDrv:  MaxL=1.
 Leave Link  303 at Wed Sep  3 17:12:54 2025, MaxMem= 12348030976 cpu:               0.9 elap:               0.1
 (Enter /home/hhratchian/gaussian/gdv-20250101-j30+/gdv/l401.exe)
 Initial guess from the checkpoint file:  "H2_CAM-B3LYP_6-31+Gdp_q0_m1.chk"
 B after Tr=     0.000000    0.000000    0.000000
         Rot=    1.000000    0.000000    0.000000    0.000000 Ang=   0.00 deg.
 AO Guess basis will be translated and rotated to current coordinates.
 JPrj=2 DoOrth=T DoCkMO=T.
 Initial guess orbital symmetries:
       Occupied  (SGG)
       Virtual   (SGU) (SGG) (SGU) (PIU) (PIU) (SGG) (PIG) (PIG)
                 (SGU)
 The electronic state of the initial guess is 1-SGG.
 Leave Link  401 at Wed Sep  3 17:12:54 2025, MaxMem= 12348030976 cpu:               1.0 elap:               0.1
 (Enter /home/hhratchian/gaussian/gdv-20250101-j30+/gdv/local/l502.exe)
 Keep R1 ints in memory in symmetry-blocked form, NReq=48593292.
 FoFCou: FMM=F IPFlag=           0 FMFlag=           0 FMFlg1=           0
         NFxFlg=           0 DoJE=F BraDBF=F KetDBF=F FulRan=T
         wScrn=  0.000000 ICntrl=       600 IOpCl=  0 I1Cent=           0 NGrid=           0
         NMat0=    1 NMatS0=     55 NMatT0=    0 NMatD0=    1 NMtDS0=    0 NMtDT0=    0
 Petite list used in FoFCou.
 Closed shell SCF:
 Using DIIS extrapolation, IDIIS=    10.
 NGot= 12348030976 LenX= 12348027340 LenY= 12348026458
 Requested convergence on RMS density matrix=1.00D-08 within 128 cycles.
 Requested convergence on MAX density matrix=1.00D-06.
 Requested convergence on             energy=1.00D-06.
 Level shift goal  0.100 maximum shift  0.100.
 No special actions if energy rises.
 Dynamic level shift is on during FON iterations.
 An orbital has undefined symmetry, so N**3 symmetry is turned off.
 
  Hrant - CycOpn.
 

 Cycle   1  Pass 1  IDiag  1:
 E= -1.17004036983007    
 DIIS: error= 7.18D-10 at cycle   1 NSaved=   1.
 NSaved= 1 IEnMin= 1 EnMin= -1.17004036983007     IErMin= 1 ErrMin= 7.18D-10
 ErrMax= 7.18D-10  0.00D+00 EMaxC= 1.00D+00 BMatC= 1.16D-18 BMatP= 1.16D-18
 Rises=F IDIUse=1 WtCom= 1.00D+00 WtEn= 0.00D+00
 Coeff-Com:  0.100D+01
 Coeff:      0.100D+01
 Gap=     0.653 Goal=     0.100 Shift=    0.000
 RMSDP=1.27D-10 MaxDP=5.09D-10              OVMax= 9.44D-10

 SCF Done:  E(RCAM-B3LYP) =  -1.17004036983     A.U. after    1 cycles
            NFock=  1  Conv=0.13D-09     -V/T= 2.0310
 KE=           1.134823 PE=          -3.638748 EE=           0.618781
 Leave Link  502 at Wed Sep  3 17:12:54 2025, MaxMem= 12348030976 cpu:               4.8 elap:               0.2
 (Enter /home/hhratchian/gaussian/gdv-20250101-j30+/gdv/l601.exe)
 Copying SCF densities to generalized density rwf, IOpCl= 0 IROHF=0.
 
 **********************************************************************
 
               Population analysis using the SCF Density.
 
 **********************************************************************
 
 Orbital symmetries:
       Occupied  (SGG)
       Virtual   (SGU) (SGG) (SGU) (PIU) (PIU) (SGG) (PIG) (PIG)
                 (SGU)
 The electronic state is 1-SGG.
 Alpha  occ. eigenvalues --       -0.49819
 Alpha virt. eigenvalues --        0.15500       0.63821       1.11052       1.75003       1.75003
 Alpha virt. eigenvalues --        2.46236       2.69662       2.69662       4.24691
          Condensed to atoms (all electrons):
               1          2
     1  H    0.587436   0.412564
     2  H    0.412564   0.587436
 Mulliken charges:
               1
     1  H   -0.000000
     2  H   -0.000000
 Sum of Mulliken charges=  -0.00000
 Mulliken charges with hydrogens summed into heavy atoms:
               1
 Electronic spatial extent (au):  <R**2>=              5.1506
 Charge=              0.0000 electrons
 Dipole moment (field-independent basis, Debye):
    X=             -0.0000    Y=              0.0000    Z=             -0.0000  Tot=              0.0000
 Quadrupole moment (field-independent basis, Debye-Ang):
   XX=             -2.0451   YY=             -2.0451   ZZ=             -1.5224
   XY=             -0.0000   XZ=             -0.0000   YZ=              0.0000
 Traceless Quadrupole moment (field-independent basis, Debye-Ang):
   XX=             -0.1742   YY=             -0.1742   ZZ=              0.3484
   XY=             -0.0000   XZ=             -0.0000   YZ=              0.0000
 Octapole moment (field-independent basis, Debye-Ang**2):
  XXX=             -0.0000  YYY=              0.0000  ZZZ=              0.0000  XYY=             -0.0000
  XXY=              0.0000  XXZ=              0.0000  XZZ=             -0.0000  YZZ=              0.0000
  YYZ=              0.0000  XYZ=              0.0000
 Hexadecapole moment (field-independent basis, Debye-Ang**3):
 XXXX=             -1.9008 YYYY=             -1.9008 ZZZZ=             -2.7899 XXXY=             -0.0000
 XXXZ=              0.0000 YYYX=             -0.0000 YYYZ=              0.0000 ZZZX=              0.0000
 ZZZY=              0.0000 XXYY=             -0.6336 XXZZ=             -0.7966 YYZZ=             -0.7966
 XXYZ=              0.0000 YYXZ=              0.0000 ZZXY=             -0.0000
 N-N=           0.715104 E-N=          -3.638748  KE=           1.134823
 Symmetry AG   KE=           1.134823
 Symmetry B1G  KE=           0.000000
 Symmetry B2G  KE=           0.000000
 Symmetry B3G  KE=           0.000000
 Symmetry AU   KE=           0.000000
 Symmetry B1U  KE=          -0.000000
 Symmetry B2U  KE=           0.000000
 Symmetry B3U  KE=           0.000000
 No NMR shielding tensors so no spin-rotation constants.
 Leave Link  601 at Wed Sep  3 17:12:54 2025, MaxMem= 12348030976 cpu:               3.5 elap:               0.1
 (Enter /home/hhratchian/gaussian/gdv-20250101-j30+/gdv/l701.exe)
 ... and contract with generalized density number  0.
 Compute integral first derivatives.
 Leave Link  701 at Wed Sep  3 17:12:55 2025, MaxMem= 12348030976 cpu:               4.3 elap:               0.2
 (Enter /home/hhratchian/gaussian/gdv-20250101-j30+/gdv/l702.exe)
 L702 exits ... SP integral derivatives will be done elsewhere.
 Leave Link  702 at Wed Sep  3 17:12:55 2025, MaxMem= 12348030976 cpu:               0.1 elap:               0.0
 (Enter /home/hhratchian/gaussian/gdv-20250101-j30+/gdv/l703.exe)
 Integral derivatives from FoFJK, PRISM(SPDF).
 Compute integral first derivatives, UseDBF=F ICtDFT=           0.
 Calling FoFJK, ICntrl=      2127 FMM=F ISym2X=1 I1Cent= 0 IOpClX= 0 NMat=1 NMatS=1 NMatT=0.
 FoFJK:  IHMeth= 1 ICntrl=    2127 DoSepK=T KAlg= 0 I1Cent=           0 FoldK=F
 IRaf=         1 NMat=       1 IRICut=       1 DoRegI=T DoRafI=F ISym2E= 1 IDoP0=0 IntGTp=1.
 FoFCou: FMM=F IPFlag=           0 FMFlag=      100000 FMFlg1=         800
         NFxFlg=           0 DoJE=F BraDBF=F KetDBF=F FulRan=T
         wScrn=  0.000000 ICntrl=      2527 IOpCl=  0 I1Cent=           0 NGrid=           0
         NMat0=    1 NMatS0=      1 NMatT0=    0 NMatD0=    1 NMtDS0=    0 NMtDT0=    0
 Petite list used in FoFCou.
 Leave Link  703 at Wed Sep  3 17:12:55 2025, MaxMem= 12348030976 cpu:               5.5 elap:               0.2
 (Enter /home/hhratchian/gaussian/gdv-20250101-j30+/gdv/l716.exe)
 Dipole        =-1.23259516D-32 1.13519724D-32 0.00000000D+00
 ***** Axes restored to original set *****
 -------------------------------------------------------------------
 Center     Atomic                   Forces (Hartrees/Bohr)
 Number     Number              X              Y              Z
 -------------------------------------------------------------------
      1        1           0.000000000    0.000000000   -0.003669235
      2        1          -0.000000000   -0.000000000    0.003669235
 -------------------------------------------------------------------
 Cartesian Forces:  Max     0.003669235 RMS     0.002118434
 Leave Link  716 at Wed Sep  3 17:12:55 2025, MaxMem= 12348030976 cpu:               0.1 elap:               0.0
 (Enter /home/hhratchian/gaussian/gdv-20250101-j30+/gdv/l103.exe)

 GradGradGradGradGradGradGradGradGradGradGradGradGradGradGradGradGradGrad
 Berny optimization.
 FormGI is forming the generalized inverse of G from B-inverse, IUseBI=4.
 NTrRot=    -1 NTRed=     1 NAtoms=     2 NSkip=     0 NRank=     1 IsLin=T EigSml=2.0000D+00
 Internal  Forces:  Max     0.003669235 RMS     0.003669235
 Search for a local minimum.
 Step number   1 out of a maximum of   20
 All quantities printed in internal units (Hartrees-Bohrs-Radians)
 RMS Force = .36692D-02 SwitMx=.10000D-02 MixMth= 1
 Mixed Optimization -- RFO/linear search
 Second derivative matrix not updated -- first step.
 The second derivative matrix:
                          R1
           R1           0.39139
 ITU=  0
     Eigenvalues ---    0.39139
 RFO step:  Lambda=-3.43952600D-05 EMin= 3.91394213D-01
 Linear search not attempted -- first point.
 GrdOpt: GIC=T ITstSp=  0 NP=   1 DidLin=F DidDIS=F IDoGRo=0 IDoRot=0
         ISwap=1 XLin= 0.000 DXMaxT= 0.300
 Iteration  1 RMS(Cart)=  0.00270603 RMS(Int)=  0.00000000
 Iteration  2 RMS(Cart)=  0.00000000 RMS(Int)=  0.00000000
 ClnCor:  largest displacement from symmetrization is 2.22D-16 for atom     2.
 Variable       Old X    -DE/DX   Delta X   Delta X   Delta X     New X
                                 (Linear)    (Quad)   (Total)
    R1        1.39840   0.00367   0.00000   0.00937   0.00937   1.40777
         Item               Value     Threshold  Converged?
 Maximum Force            0.003669     0.000450     NO 
 RMS     Force            0.003669     0.000300     NO 
 Maximum Displacement     0.004687     0.001800     NO 
 RMS     Displacement     0.006628     0.001200     NO 
 Predicted change in Energy=-1.719914D-05
 Lowest energy point so far.  Saving SCF results.
 GradGradGradGradGradGradGradGradGradGradGradGradGradGradGradGradGradGrad

 Leave Link  103 at Wed Sep  3 17:12:55 2025, MaxMem= 12348030976 cpu:               1.5 elap:               0.1
 (Enter /home/hhratchian/gaussian/gdv-20250101-j30+/gdv/l202.exe)
                          Input orientation:                          
 ---------------------------------------------------------------------
 Center     Atomic      Atomic             Coordinates (Angstroms)
 Number     Number       Type             X           Y           Z
 ---------------------------------------------------------------------
      1          1           0        0.000000    0.000000   -0.002480
      2          1           0        0.000000    0.000000    0.742480
 ---------------------------------------------------------------------
 Stoichiometry    H2
 Framework group  D*H[C*(H.H)]
 Deg. of freedom     1
 Full point group                 D*H     NOp   8
 RotChk:  IX=0 Diff= 0.00D+00
 Largest Abelian subgroup         D2H     NOp   8
 Largest concise Abelian subgroup C2      NOp   2
                         Standard orientation:                         
 ---------------------------------------------------------------------
 Center     Atomic      Atomic             Coordinates (Angstroms)
 Number     Number       Type             X           Y           Z
 ---------------------------------------------------------------------
      1          1           0        0.000000    0.000000    0.372480
      2          1           0        0.000000    0.000000   -0.372480
 ---------------------------------------------------------------------
 Rotational constants (GHZ):           0.0000000        1807.1557252        1807.1557252
 Leave Link  202 at Wed Sep  3 17:12:55 2025, MaxMem= 12348030976 cpu:               0.9 elap:               0.1
 (Enter /home/hhratchian/gaussian/gdv-20250101-j30+/gdv/local/l301.exe)
 Basis read from rwf:  (6D, 7F)
 No pseudopotential information found on rwf file.
 There are     3 symmetry adapted cartesian basis functions of AG  symmetry.
 There are     0 symmetry adapted cartesian basis functions of B1G symmetry.
 There are     1 symmetry adapted cartesian basis functions of B2G symmetry.
 There are     1 symmetry adapted cartesian basis functions of B3G symmetry.
 There are     0 symmetry adapted cartesian basis functions of AU  symmetry.
 There are     3 symmetry adapted cartesian basis functions of B1U symmetry.
 There are     1 symmetry adapted cartesian basis functions of B2U symmetry.
 There are     1 symmetry adapted cartesian basis functions of B3U symmetry.
 There are     3 symmetry adapted basis functions of AG  symmetry.
 There are     0 symmetry adapted basis functions of B1G symmetry.
 There are     1 symmetry adapted basis functions of B2G symmetry.
 There are     1 symmetry adapted basis functions of B3G symmetry.
 There are     0 symmetry adapted basis functions of AU  symmetry.
 There are     3 symmetry adapted basis functions of B1U symmetry.
 There are     1 symmetry adapted basis functions of B2U symmetry.
 There are     1 symmetry adapted basis functions of B3U symmetry.
    10 basis functions,    14 primitive gaussians,    10 cartesian basis functions
     1 alpha electrons        1 beta electrons
       nuclear repulsion energy         0.7103426578 Hartrees.
 IExCor=   2004019 DFT=T Ex+Corr=CAM-B3LYP ScaHFX=  1.000000
 ScaDFX=  1.000000  1.000000  1.000000  0.810000  1.000000  0.000000
 ScaDFX=  0.000000  0.000000  0.000000  0.000000  0.000000  0.000000
 Grid=SuperFine IRanWt=     -1 IRanGd=            0 ICorTp=0 IEDCtl=  2004
 HFx  wShort=  0.000000 wLong=  0.330000 cFull=  0.190000 cShort=  0.000000 cLong=  0.460000
 DFx  wShort=  0.330000 wLong=  0.000000 cFull=  0.350000 cShort=  0.460000 cLong=  0.000000
 NAtoms=    2 NActive=    2 NUniq=    1 SFac= 4.00D+00 NAtFMM=   60 NAOKFM=F Big=F
 Integral buffers will be    131072 words long.
 Raffenetti 2 integral format.
 Two-electron integral symmetry is turned on.
 No density basis found on file    724.
 Leave Link  301 at Wed Sep  3 17:12:55 2025, MaxMem= 12348030976 cpu:               0.2 elap:               0.1
 (Enter /home/hhratchian/gaussian/gdv-20250101-j30+/gdv/l302.exe)
 NPDir=0 NMtPBC=     1 NCelOv=     1 NCel=       1 NClECP=     1 NCelD=      1
         NCelK=      1 NCelE2=     1 NClLst=     1 CellRange=     0.0.
 One-electron integrals computed using PRISM.
 One-electron integral symmetry used in STVInt
 NBasis=    10 RedAO= T EigKep=  9.72D-02  NBF=     3     0     1     1     0     3     1     1
 NBsUse=    10 1.00D-06 EigRej= -1.00D+00 NBFU=     3     0     1     1     0     3     1     1
 Precomputing XC quadrature grid using
 IXCGrd=   9 Grid=SuperFine IRanWt=          -1 IRanGd=           0 AccXCQ= 0.00D+00.
 Generated NRdTot=       0 NPtTot=      124686 NUsed=           0 NTot=          64
 NSgBfM=    10    10    10    10    10 MxSgAt=     2 MxSgA2=     2 SizInc=   0.000
 NMBTot=      900 MaxBatPerAtom=      122 MaxMicBPerAtom=      452 NBfPt=             1040521.
 Leave Link  302 at Wed Sep  3 17:12:55 2025, MaxMem= 12348030976 cpu:               3.5 elap:               0.2
 (Enter /home/hhratchian/gaussian/gdv-20250101-j30+/gdv/l303.exe)
 DipDrv:  MaxL=1.
 Leave Link  303 at Wed Sep  3 17:12:55 2025, MaxMem= 12348030976 cpu:               0.8 elap:               0.1
 (Enter /home/hhratchian/gaussian/gdv-20250101-j30+/gdv/l401.exe)
 Initial guess from the checkpoint file:  "H2_CAM-B3LYP_6-31+Gdp_q0_m1.chk"
 B after Tr=     0.000000    0.000000    0.000000
         Rot=    1.000000    0.000000    0.000000    0.000000 Ang=   0.00 deg.
 AO Guess basis will be translated and rotated to current coordinates.
 JPrj=2 DoOrth=T DoCkMO=T.
 Initial guess orbital symmetries:
       Occupied  (SGG)
       Virtual   (SGU) (SGG) (SGU) (PIU) (PIU) (SGG) (PIG) (PIG)
                 (SGU)
 The electronic state of the initial guess is 1-SGG.
 Leave Link  401 at Wed Sep  3 17:12:55 2025, MaxMem= 12348030976 cpu:               1.0 elap:               0.1
 (Enter /home/hhratchian/gaussian/gdv-20250101-j30+/gdv/local/l502.exe)
 Keep R1 ints in memory in symmetry-blocked form, NReq=48593292.
 FoFCou: FMM=F IPFlag=           0 FMFlag=           0 FMFlg1=           0
         NFxFlg=           0 DoJE=F BraDBF=F KetDBF=F FulRan=T
         wScrn=  0.000000 ICntrl=       600 IOpCl=  0 I1Cent=           0 NGrid=           0
         NMat0=    1 NMatS0=     55 NMatT0=    0 NMatD0=    1 NMtDS0=    0 NMtDT0=    0
 Petite list used in FoFCou.
 Closed shell SCF:
 Using DIIS extrapolation, IDIIS=    10.
 NGot= 12348030976 LenX= 12348027340 LenY= 12348026458
 Requested convergence on RMS density matrix=1.00D-08 within 128 cycles.
 Requested convergence on MAX density matrix=1.00D-06.
 Requested convergence on             energy=1.00D-06.
 Level shift goal  0.100 maximum shift  0.100.
 No special actions if energy rises.
 Dynamic level shift is on during FON iterations.
 An orbital has undefined symmetry, so N**3 symmetry is turned off.
 
  Hrant - CycOpn.
 

 Cycle   1  Pass 1  IDiag  1:
 E= -1.17005445051036    
 DIIS: error= 5.88D-04 at cycle   1 NSaved=   1.
 NSaved= 1 IEnMin= 1 EnMin= -1.17005445051036     IErMin= 1 ErrMin= 5.88D-04
 ErrMax= 5.88D-04  0.00D+00 EMaxC= 1.00D+00 BMatC= 9.77D-07 BMatP= 9.77D-07
 Rises=F IDIUse=1 WtCom= 1.00D+00 WtEn= 0.00D+00
 Coeff-Com:  0.100D+01
 Coeff:      0.100D+01
 Gap=     0.651 Goal=     0.100 Shift=    0.000
 RMSDP=1.49D-04 MaxDP=5.88D-04              OVMax= 1.23D-03

 Cycle   2  Pass 1  IDiag  1:
 E= -1.17005771541686     Delta-E=       -0.000003264907 Rises=F Damp=F AM=F Ri=F Fa=F
 DIIS: error= 6.43D-05 at cycle   2 NSaved=   2.
 NSaved= 2 IEnMin= 2 EnMin= -1.17005771541686     IErMin= 2 ErrMin= 6.43D-05
 ErrMax= 6.43D-05  0.00D+00 EMaxC= 1.00D+00 BMatC= 8.31D-09 BMatP= 9.77D-07
 Rises=F IDIUse=1 WtCom= 1.00D+00 WtEn= 0.00D+00
 Coeff-Com:  0.530D-01 0.947D+00
 Coeff:      0.530D-01 0.947D+00
 Gap=     0.651 Goal=     0.100 Shift=    0.000
 RMSDP=6.08D-06 MaxDP=1.92D-05 DE=-3.26D-06 OVMax= 6.78D-05

 Cycle   3  Pass 1  IDiag  1:
 E= -1.17005773134357     Delta-E=       -0.000000015927 Rises=F Damp=F AM=F Ri=F Fa=F
 DIIS: error= 3.24D-06 at cycle   3 NSaved=   3.
 NSaved= 3 IEnMin= 3 EnMin= -1.17005773134357     IErMin= 3 ErrMin= 3.24D-06
 ErrMax= 3.24D-06  0.00D+00 EMaxC= 1.00D+00 BMatC= 3.61D-11 BMatP= 8.31D-09
 Rises=F IDIUse=1 WtCom= 1.00D+00 WtEn= 0.00D+00
 Coeff-Com: -0.614D-02-0.812D-01 0.109D+01
 Coeff:     -0.614D-02-0.812D-01 0.109D+01
 Gap=     0.651 Goal=     0.100 Shift=    0.000
 RMSDP=5.09D-07 MaxDP=1.93D-06 DE=-1.59D-08 OVMax= 3.90D-06

 Cycle   4  Pass 1  IDiag  1:
 E= -1.17005773140560     Delta-E=       -0.000000000062 Rises=F Damp=F AM=F Ri=F Fa=F
 DIIS: error= 9.19D-11 at cycle   4 NSaved=   4.
 NSaved= 4 IEnMin= 4 EnMin= -1.17005773140560     IErMin= 4 ErrMin= 9.19D-11
 ErrMax= 9.19D-11  0.00D+00 EMaxC= 1.00D+00 BMatC= 2.09D-20 BMatP= 3.61D-11
 Rises=F IDIUse=1 WtCom= 1.00D+00 WtEn= 0.00D+00
 Coeff-Com: -0.665D-07 0.109D-05-0.794D-06 0.100D+01
 Coeff:     -0.665D-07 0.109D-05-0.794D-06 0.100D+01
 Gap=     0.651 Goal=     0.100 Shift=    0.000
 Skip diagonalization as Alpha Fock matrix is already diagonal.
 RMSDP=3.51D-17 MaxDP=1.67D-16 DE=-6.20D-11 OVMax= 3.90D-06

 SCF Done:  E(RCAM-B3LYP) =  -1.17005773141     A.U. after    4 cycles
            NFock=  4  Conv=0.35D-16     -V/T= 2.0352
 KE=           1.130281 PE=          -3.627673 EE=           0.616991
 Leave Link  502 at Wed Sep  3 17:12:56 2025, MaxMem= 12348030976 cpu:               6.9 elap:               0.2
 (Enter /home/hhratchian/gaussian/gdv-20250101-j30+/gdv/l701.exe)
 ... and contract with generalized density number  0.
 Compute integral first derivatives.
 Leave Link  701 at Wed Sep  3 17:12:56 2025, MaxMem= 12348030976 cpu:               3.4 elap:               0.1
 (Enter /home/hhratchian/gaussian/gdv-20250101-j30+/gdv/l702.exe)
 L702 exits ... SP integral derivatives will be done elsewhere.
 Leave Link  702 at Wed Sep  3 17:12:56 2025, MaxMem= 12348030976 cpu:               0.1 elap:               0.0
 (Enter /home/hhratchian/gaussian/gdv-20250101-j30+/gdv/l703.exe)
 Integral derivatives from FoFJK, PRISM(SPDF).
 Compute integral first derivatives, UseDBF=F ICtDFT=           0.
 Calling FoFJK, ICntrl=      2127 FMM=F ISym2X=1 I1Cent= 0 IOpClX= 0 NMat=1 NMatS=1 NMatT=0.
 FoFJK:  IHMeth= 1 ICntrl=    2127 DoSepK=T KAlg= 0 I1Cent=           0 FoldK=F
 IRaf=         1 NMat=       1 IRICut=       1 DoRegI=T DoRafI=F ISym2E= 1 IDoP0=0 IntGTp=1.
 FoFCou: FMM=F IPFlag=           0 FMFlag=      100000 FMFlg1=         800
         NFxFlg=           0 DoJE=F BraDBF=F KetDBF=F FulRan=T
         wScrn=  0.000000 ICntrl=      2527 IOpCl=  0 I1Cent=           0 NGrid=           0
         NMat0=    1 NMatS0=      1 NMatT0=    0 NMatD0=    1 NMtDS0=    0 NMtDT0=    0
 Petite list used in FoFCou.
 Leave Link  703 at Wed Sep  3 17:12:56 2025, MaxMem= 12348030976 cpu:               5.5 elap:               0.2
 (Enter /home/hhratchian/gaussian/gdv-20250101-j30+/gdv/l716.exe)
 Dipole        =-1.72563323D-31-3.30505984D-35 0.00000000D+00
 ***** Axes restored to original set *****
 -------------------------------------------------------------------
 Center     Atomic                   Forces (Hartrees/Bohr)
 Number     Number              X              Y              Z
 -------------------------------------------------------------------
      1        1           0.000000000    0.000000000   -0.000053918
      2        1          -0.000000000   -0.000000000    0.000053918
 -------------------------------------------------------------------
 Cartesian Forces:  Max     0.000053918 RMS     0.000031130
 Leave Link  716 at Wed Sep  3 17:12:56 2025, MaxMem= 12348030976 cpu:               0.1 elap:               0.0
 (Enter /home/hhratchian/gaussian/gdv-20250101-j30+/gdv/l103.exe)

 GradGradGradGradGradGradGradGradGradGradGradGradGradGradGradGradGradGrad
 Berny optimization.
 Using GEDIIS/GDIIS optimizer.
 Red2BG is reusing G-inverse.
 Internal  Forces:  Max     0.000053918 RMS     0.000053918
 Search for a local minimum.
 Step number   2 out of a maximum of   20
 All quantities printed in internal units (Hartrees-Bohrs-Radians)
 RMS Force = .53918D-04 SwitMx=.10000D-02 MixMth= 2
 Mixed Optimization -- En-DIIS/RFO-DIIS
 Update second derivatives using D2CorX and points    1    2
 DE= -1.74D-05 DEPred=-1.72D-05 R= 1.01D+00
 TightC=F SS=  1.41D+00  RLast= 9.37D-03 DXNew= 5.0454D-01 2.8122D-02
 Trust test= 1.01D+00 RLast= 9.37D-03 DXMaxT set to 3.00D-01
 The second derivative matrix:
                          R1
           R1           0.38568
 ITU=  1  0
 Use linear search instead of GDIIS.
     Eigenvalues ---    0.38568
 RFO step:  Lambda= 0.00000000D+00 EMin= 3.85676696D-01
 Quartic linear search produced a step of  0.01515.
 GrdOpt: GIC=T ITstSp=  0 NP=   2 DidLin=T DidDIS=F IDoGRo=0 IDoRot=0
         ISwap=1 XLin= 0.015 DXMaxT= 0.300
 Iteration  1 RMS(Cart)=  0.00004101 RMS(Int)=  0.00000000
 Iteration  2 RMS(Cart)=  0.00000000 RMS(Int)=  0.00000000
 ClnCor:  largest displacement from symmetrization is 3.99D-17 for atom     1.
 Variable       Old X    -DE/DX   Delta X   Delta X   Delta X     New X
                                 (Linear)    (Quad)   (Total)
    R1        1.40777   0.00005   0.00014  -0.00000   0.00014   1.40791
         Item               Value     Threshold  Converged?
 Maximum Force            0.000054     0.000450     YES
 RMS     Force            0.000054     0.000300     YES
 Maximum Displacement     0.000071     0.001800     YES
 RMS     Displacement     0.000100     0.001200     YES
 Predicted change in Energy=-3.767937D-09
 Optimization completed.
    -- Stationary point found.
                           ----------------------------
                           !   Optimized Parameters   !
                           ! (Angstroms and Degrees)  !
 --------------------------                            --------------------------
 ! Name  Definition              Value          Derivative Info.                !
 --------------------------------------------------------------------------------
 ! R1    R(1,2)                  0.745          -DE/DX =    0.0001              !
 --------------------------------------------------------------------------------
 Lowest energy point so far.  Saving SCF results.
 Largest change from initial coordinates is atom    2       0.002 Angstoms.
 GradGradGradGradGradGradGradGradGradGradGradGradGradGradGradGradGradGrad

 Leave Link  103 at Wed Sep  3 17:12:56 2025, MaxMem= 12348030976 cpu:               1.0 elap:               0.1
 (Enter /home/hhratchian/gaussian/gdv-20250101-j30+/gdv/l202.exe)
                          Input orientation:                          
 ---------------------------------------------------------------------
 Center     Atomic      Atomic             Coordinates (Angstroms)
 Number     Number       Type             X           Y           Z
 ---------------------------------------------------------------------
      1          1           0        0.000000    0.000000   -0.002480
      2          1           0        0.000000    0.000000    0.742480
 ---------------------------------------------------------------------
 Stoichiometry    H2
 Framework group  D*H[C*(H.H)]
 Deg. of freedom     1
 Full point group                 D*H     NOp   8
 RotChk:  IX=0 Diff= 0.00D+00
 Largest Abelian subgroup         D2H     NOp   8
 Largest concise Abelian subgroup C2      NOp   2
                         Standard orientation:                         
 ---------------------------------------------------------------------
 Center     Atomic      Atomic             Coordinates (Angstroms)
 Number     Number       Type             X           Y           Z
 ---------------------------------------------------------------------
      1          1           0        0.000000    0.000000    0.372480
      2          1           0        0.000000    0.000000   -0.372480
 ---------------------------------------------------------------------
 Rotational constants (GHZ):           0.0000000        1807.1557252        1807.1557252
 Leave Link  202 at Wed Sep  3 17:12:56 2025, MaxMem= 12348030976 cpu:               0.8 elap:               0.0
 (Enter /home/hhratchian/gaussian/gdv-20250101-j30+/gdv/l601.exe)
 Copying SCF densities to generalized density rwf, IOpCl= 0 IROHF=0.
 
 **********************************************************************
 
               Population analysis using the SCF Density.
 
 **********************************************************************
 
 Orbital symmetries:
       Occupied  (SGG)
       Virtual   (SGU) (SGG) (SGU) (PIU) (PIU) (SGG) (PIG) (PIG)
                 (SGU)
 The electronic state is 1-SGG.
 Alpha  occ. eigenvalues --       -0.49711
 Alpha virt. eigenvalues --        0.15365       0.64007       1.10643       1.75051       1.75051
 Alpha virt. eigenvalues --        2.45298       2.69111       2.69111       4.22255
          Condensed to atoms (all electrons):
               1          2
     1  H    0.588300   0.411700
     2  H    0.411700   0.588300
 Mulliken charges:
               1
     1  H   -0.000000
     2  H   -0.000000
 Sum of Mulliken charges=  -0.00000
 Mulliken charges with hydrogens summed into heavy atoms:
               1
 Electronic spatial extent (au):  <R**2>=              5.1740
 Charge=             -0.0000 electrons
 Dipole moment (field-independent basis, Debye):
    X=             -0.0000    Y=             -0.0000    Z=             -0.0000  Tot=              0.0000
 Quadrupole moment (field-independent basis, Debye-Ang):
   XX=             -2.0515   YY=             -2.0515   ZZ=             -1.5233
   XY=             -0.0000   XZ=             -0.0000   YZ=              0.0000
 Traceless Quadrupole moment (field-independent basis, Debye-Ang):
   XX=             -0.1761   YY=             -0.1761   ZZ=              0.3521
   XY=             -0.0000   XZ=             -0.0000   YZ=              0.0000
 Octapole moment (field-independent basis, Debye-Ang**2):
  XXX=             -0.0000  YYY=              0.0000  ZZZ=             -0.0000  XYY=             -0.0000
  XXY=             -0.0000  XXZ=             -0.0000  XZZ=             -0.0000  YZZ=              0.0000
  YYZ=             -0.0000  XYZ=              0.0000
 Hexadecapole moment (field-independent basis, Debye-Ang**3):
 XXXX=             -1.9106 YYYY=             -1.9106 ZZZZ=             -2.8150 XXXY=             -0.0000
 XXXZ=              0.0000 YYYX=             -0.0000 YYYZ=              0.0000 ZZZX=              0.0000
 ZZZY=              0.0000 XXYY=             -0.6369 XXZZ=             -0.8027 YYZZ=             -0.8027
 XXYZ=              0.0000 YYXZ=              0.0000 ZZXY=             -0.0000
 N-N=           0.710343 E-N=          -3.627673  KE=           1.130281
 Symmetry AG   KE=           1.130281
 Symmetry B1G  KE=           0.000000
 Symmetry B2G  KE=           0.000000
 Symmetry B3G  KE=           0.000000
 Symmetry AU   KE=           0.000000
 Symmetry B1U  KE=           0.000000
 Symmetry B2U  KE=           0.000000
 Symmetry B3U  KE=           0.000000
 No NMR shielding tensors so no spin-rotation constants.
 Leave Link  601 at Wed Sep  3 17:12:56 2025, MaxMem= 12348030976 cpu:               4.0 elap:               0.2
 (Enter /home/hhratchian/gaussian/gdv-20250101-j30+/gdv/local/l9999.exe)
 Unable to Open any file for archive entry.
 1\1\GINC-NODE035\FOpt\RCAM-B3LYP\Gen\H2\AABOUTAKA\03-Sep-2025\0\\#p CA
 M-B3LYP guess=read chkbasis geom=allcheck Opt Freq SCF=(fermi, novarac
 c) int=superfinegrid\\H2 — CAM-B3LYP/6-31+G(d,p) q=0 m=1 [1/3: Stabi
 lity]\\0,1\H,0.,0.,-0.0024802426\H,0.,0.,0.7424802426\\Version=ES64L-G
 DVRevJ.30+\State=1-SGG\HF=-1.1700577\RMSD=3.510e-17\RMSF=3.113e-05\Dip
 ole=0.,0.,0.\Quadrupole=-0.130906,-0.130906,0.2618119,0.,0.,0.\PG=D*H 
 [C*(H1.H1)]\\@
 The archive entry for this job was punched.


 HE THAT RISETH LATE MUST TROT ALL DAY.

                  -- BENJAMIN FRANKLIN
 Leave Link 9999 at Wed Sep  3 17:12:56 2025, MaxMem= 12348030976 cpu:               0.8 elap:               0.1
 Job cpu time:       0 days  0 hours  1 minutes  3.1 seconds.
 Elapsed time:       0 days  0 hours  0 minutes  8.3 seconds.
 File lengths (MBytes):  RWF=     38 Int=      0 D2E=      0 Chk=     17 Scr=      2
 Normal termination of Gaussian DV at Wed Sep  3 17:12:56 2025.
 (Enter /home/hhratchian/gaussian/gdv-20250101-j30+/gdv/local/l1.exe)
 Link1:  Proceeding to internal job step number  2.
 ----------------------------------------------------------------------
 #P Geom=AllCheck Guess=TCheck SCRF=Check GenChk RCAM-B3LYP/ChkBas Freq
 ----------------------------------------------------------------------
 1/10=4,29=7,30=1,38=1,40=1/1,3;
 2/12=2/2;
 3/5=7,6=2,11=2,14=-4,25=1,30=1,67=1,70=2,71=2,74=-40,75=-7,82=7,116=1,140=1,187=7/1,2,3;
 4/5=101/1;
 5/5=2,22=13,38=6,98=1/2;
 8/6=4,10=90,11=11/1;
 11/6=1,8=1,9=11,15=111,16=1/1,2,10;
 10/6=1/2;
 6/7=2,8=2,9=2,10=2,28=1/1;
 7/8=1,10=1,25=1/1,2,3,16;
 1/10=4,30=1/3;
 99//99;
 Leave Link    1 at Wed Sep  3 17:12:57 2025, MaxMem= 12348030976 cpu:               0.1 elap:               0.0
 (Enter /home/hhratchian/gaussian/gdv-20250101-j30+/gdv/local/l101.exe)
 
  Hrant - IAPOps =                         0
  Hrant - IAPOp1 =                         0
  Hrant - IAPOp2 =                         0
  Hrant - DoAP   =   F
 
 Structure from the checkpoint file:  "H2_CAM-B3LYP_6-31+Gdp_q0_m1.chk"
 -----------------------------------------------------
 H2 — CAM-B3LYP/6-31+G(d,p) q=0 m=1 [1/3: Stability]
 -----------------------------------------------------
 Charge =     0 Multiplicity =     1
 Redundant internal coordinates found in file.  (GICs).
 H,0,0.,0.,-0.0024802426
 H,0,0.,0.,0.7424802426
 
 Recover connectivity data from disk.
 Reading GIC definitions from chk.
 Skipping GIC derivative info from chk, if any.
 No input coordinate modifications requested.
 Forming B-matrix definitions.
 Forming B-matrix derivative definitions.
 ITRead=  0  0
 MicOpt= -1 -1
 NAtoms=      2 NQM=        2 NQMF=       0 NMMI=      0 NMMIF=      0
                NMic=       0 NMicF=      0.
                    Isotopes and Nuclear Properties:
 (Nuclear quadrupole moments (NQMom) in fm**2, nuclear magnetic moments (NMagM)
  in nuclear magnetons)

  Atom         1           2
 IAtWgt=           1           1
 AtmWgt=   1.0078250   1.0078250
 NucSpn=           1           1
 AtZEff=    1.000000    1.000000
 NQMom=    0.0000000   0.0000000
 NMagM=    2.7928460   2.7928460
 AtZNuc=   1.0000000   1.0000000
 Leave Link  101 at Wed Sep  3 17:12:57 2025, MaxMem= 12348030976 cpu:               1.1 elap:               0.3
 (Enter /home/hhratchian/gaussian/gdv-20250101-j30+/gdv/l103.exe)

 GradGradGradGradGradGradGradGradGradGradGradGradGradGradGradGradGradGrad
 Berny optimization.
 Initialization pass.
                           ----------------------------
                           !    Initial Parameters    !
                           ! (Angstroms and Degrees)  !
 --------------------------                            --------------------------
 ! Name  Definition              Value          Derivative Info.                !
 --------------------------------------------------------------------------------
 ! R1    R(1,2)                  0.745          calculate D2E/DX2 analytically  !
 --------------------------------------------------------------------------------
 Trust Radius=3.00D-01 FncErr=1.00D-07 GrdErr=1.00D-07 EigMax=2.50D+02 EigMin=1.00D-04
 Number of steps in this run=      2 maximum allowed number of steps=      2.
 GradGradGradGradGradGradGradGradGradGradGradGradGradGradGradGradGradGrad

 Leave Link  103 at Wed Sep  3 17:12:57 2025, MaxMem= 12348030976 cpu:               0.1 elap:               0.0
 (Enter /home/hhratchian/gaussian/gdv-20250101-j30+/gdv/l202.exe)
                          Input orientation:                          
 ---------------------------------------------------------------------
 Center     Atomic      Atomic             Coordinates (Angstroms)
 Number     Number       Type             X           Y           Z
 ---------------------------------------------------------------------
      1          1           0        0.000000    0.000000   -0.002480
      2          1           0        0.000000    0.000000    0.742480
 ---------------------------------------------------------------------
 Stoichiometry    H2
 Framework group  D*H[C*(H.H)]
 Deg. of freedom     1
 Full point group                 D*H     NOp   8
 RotChk:  IX=0 Diff= 0.00D+00
 Largest Abelian subgroup         D2H     NOp   8
 Largest concise Abelian subgroup C2      NOp   2
                         Standard orientation:                         
 ---------------------------------------------------------------------
 Center     Atomic      Atomic             Coordinates (Angstroms)
 Number     Number       Type             X           Y           Z
 ---------------------------------------------------------------------
      1          1           0        0.000000    0.000000    0.372480
      2          1           0        0.000000    0.000000   -0.372480
 ---------------------------------------------------------------------
 Rotational constants (GHZ):           0.0000000        1807.1557252        1807.1557252
 Leave Link  202 at Wed Sep  3 17:12:57 2025, MaxMem= 12348030976 cpu:               0.9 elap:               0.0
 (Enter /home/hhratchian/gaussian/gdv-20250101-j30+/gdv/local/l301.exe)
 Basis read from chk: "H2_CAM-B3LYP_6-31+Gdp_q0_m1.chk" (6D, 7F)
 No pseudopotential information found on chk file.
 There are     3 symmetry adapted cartesian basis functions of AG  symmetry.
 There are     0 symmetry adapted cartesian basis functions of B1G symmetry.
 There are     1 symmetry adapted cartesian basis functions of B2G symmetry.
 There are     1 symmetry adapted cartesian basis functions of B3G symmetry.
 There are     0 symmetry adapted cartesian basis functions of AU  symmetry.
 There are     3 symmetry adapted cartesian basis functions of B1U symmetry.
 There are     1 symmetry adapted cartesian basis functions of B2U symmetry.
 There are     1 symmetry adapted cartesian basis functions of B3U symmetry.
 There are     3 symmetry adapted basis functions of AG  symmetry.
 There are     0 symmetry adapted basis functions of B1G symmetry.
 There are     1 symmetry adapted basis functions of B2G symmetry.
 There are     1 symmetry adapted basis functions of B3G symmetry.
 There are     0 symmetry adapted basis functions of AU  symmetry.
 There are     3 symmetry adapted basis functions of B1U symmetry.
 There are     1 symmetry adapted basis functions of B2U symmetry.
 There are     1 symmetry adapted basis functions of B3U symmetry.
    10 basis functions,    14 primitive gaussians,    10 cartesian basis functions
     1 alpha electrons        1 beta electrons
       nuclear repulsion energy         0.7103426578 Hartrees.
 IExCor=   2004019 DFT=T Ex+Corr=CAM-B3LYP ScaHFX=  1.000000
 ScaDFX=  1.000000  1.000000  1.000000  0.810000  1.000000  0.000000
 ScaDFX=  0.000000  0.000000  0.000000  0.000000  0.000000  0.000000
 Grid=SuperFine IRanWt=     -1 IRanGd=            0 ICorTp=0 IEDCtl=  2004
 HFx  wShort=  0.000000 wLong=  0.330000 cFull=  0.190000 cShort=  0.000000 cLong=  0.460000
 DFx  wShort=  0.330000 wLong=  0.000000 cFull=  0.350000 cShort=  0.460000 cLong=  0.000000
 NAtoms=    2 NActive=    2 NUniq=    1 SFac= 4.00D+00 NAtFMM=   60 NAOKFM=F Big=F
 Integral buffers will be    131072 words long.
 Raffenetti 2 integral format.
 Two-electron integral symmetry is turned on.
 No density basis found on file 200724.
 Leave Link  301 at Wed Sep  3 17:12:57 2025, MaxMem= 12348030976 cpu:               0.2 elap:               0.1
 (Enter /home/hhratchian/gaussian/gdv-20250101-j30+/gdv/l302.exe)
 NPDir=0 NMtPBC=     1 NCelOv=     1 NCel=       1 NClECP=     1 NCelD=      1
         NCelK=      1 NCelE2=     1 NClLst=     1 CellRange=     0.0.
 One-electron integrals computed using PRISM.
 One-electron integral symmetry used in STVInt
 NBasis=    10 RedAO= T EigKep=  9.72D-02  NBF=     3     0     1     1     0     3     1     1
 NBsUse=    10 1.00D-06 EigRej= -1.00D+00 NBFU=     3     0     1     1     0     3     1     1
 Precomputing XC quadrature grid using
 IXCGrd=   9 Grid=SuperFine IRanWt=          -1 IRanGd=           0 AccXCQ= 0.00D+00.
 Generated NRdTot=       0 NPtTot=      124686 NUsed=           0 NTot=          64
 NSgBfM=    10    10    10    10    10 MxSgAt=     2 MxSgA2=     2 SizInc=   0.000
 NMBTot=      900 MaxBatPerAtom=      122 MaxMicBPerAtom=      452 NBfPt=             1040521.
 Leave Link  302 at Wed Sep  3 17:12:57 2025, MaxMem= 12348030976 cpu:               4.2 elap:               0.2
 (Enter /home/hhratchian/gaussian/gdv-20250101-j30+/gdv/l303.exe)
 DipDrv:  MaxL=1.
 Leave Link  303 at Wed Sep  3 17:12:57 2025, MaxMem= 12348030976 cpu:               0.9 elap:               0.1
 (Enter /home/hhratchian/gaussian/gdv-20250101-j30+/gdv/l401.exe)
 Initial guess from the checkpoint file:  "H2_CAM-B3LYP_6-31+Gdp_q0_m1.chk"
 B after Tr=     0.000000    0.000000    0.000000
         Rot=    1.000000    0.000000    0.000000    0.000000 Ang=   0.00 deg.
 AO Guess basis will be translated and rotated to current coordinates.
 JPrj=2 DoOrth=T DoCkMO=T.
 Initial guess orbital symmetries:
       Occupied  (SGG)
       Virtual   (SGU) (SGG) (SGU) (PIU) (PIU) (SGG) (PIG) (PIG)
                 (SGU)
 The electronic state of the initial guess is 1-SGG.
 Leave Link  401 at Wed Sep  3 17:12:57 2025, MaxMem= 12348030976 cpu:               0.9 elap:               0.1
 (Enter /home/hhratchian/gaussian/gdv-20250101-j30+/gdv/local/l502.exe)
 Keep R1 ints in memory in symmetry-blocked form, NReq=48593292.
 FoFCou: FMM=F IPFlag=           0 FMFlag=           0 FMFlg1=           0
         NFxFlg=           0 DoJE=F BraDBF=F KetDBF=F FulRan=T
         wScrn=  0.000000 ICntrl=       600 IOpCl=  0 I1Cent=           0 NGrid=           0
         NMat0=    1 NMatS0=     55 NMatT0=    0 NMatD0=    1 NMtDS0=    0 NMtDT0=    0
 Petite list used in FoFCou.
 Closed shell SCF:
 Using DIIS extrapolation, IDIIS=    10.
 NGot= 12348030976 LenX= 12348027340 LenY= 12348026458
 Requested convergence on RMS density matrix=1.00D-08 within 128 cycles.
 Requested convergence on MAX density matrix=1.00D-06.
 Requested convergence on             energy=1.00D-06.
 Level shift goal  0.100 maximum shift  0.100.
 No special actions if energy rises.
 Dynamic level shift is on during FON iterations.
 
  Hrant - CycOpn.
 

 Cycle   1  Pass 1  IDiag  1:
 E= -1.17005773140560    
 DIIS: error= 9.19D-11 at cycle   1 NSaved=   1.
 NSaved= 1 IEnMin= 1 EnMin= -1.17005773140560     IErMin= 1 ErrMin= 9.19D-11
 ErrMax= 9.19D-11  0.00D+00 EMaxC= 1.00D+00 BMatC= 2.09D-20 BMatP= 2.09D-20
 Rises=F IDIUse=1 WtCom= 1.00D+00 WtEn= 0.00D+00
 Coeff-Com:  0.100D+01
 Coeff:      0.100D+01
 Gap=     0.651 Goal=     0.100 Shift=    0.000
 Skip diagonalization as Alpha Fock matrix is already diagonal.
 RMSDP=2.78D-18 MaxDP=1.39D-17              OVMax= 0.00D+00

 SCF Done:  E(RCAM-B3LYP) =  -1.17005773141     A.U. after    1 cycles
            NFock=  1  Conv=0.28D-17     -V/T= 2.0352
 KE=           1.130281 PE=          -3.627673 EE=           0.616991
 Leave Link  502 at Wed Sep  3 17:12:58 2025, MaxMem= 12348030976 cpu:               4.9 elap:               0.2
 (Enter /home/hhratchian/gaussian/gdv-20250101-j30+/gdv/l801.exe)
 DoSCS=F DFT=T ScalE2(SS,OS)=  1.000000  1.000000
 Range of M.O.s used for correlation:     1    10
 NBasis=    10 NAE=     1 NBE=     1 NFC=     0 NFV=     0
 NROrb=     10 NOA=     1 NOB=     1 NVA=     9 NVB=     9
 Leave Link  801 at Wed Sep  3 17:12:58 2025, MaxMem= 12348030976 cpu:               0.2 elap:               0.0
 (Enter /home/hhratchian/gaussian/gdv-20250101-j30+/gdv/l1101.exe)
 Using compressed storage, NAtomX=     2.
 Will process      3 centers per pass.
 Leave Link 1101 at Wed Sep  3 17:12:58 2025, MaxMem= 12348030976 cpu:               3.7 elap:               0.1
 (Enter /home/hhratchian/gaussian/gdv-20250101-j30+/gdv/l1102.exe)
 Symmetrizing basis deriv contribution to polar:
 IMax=3 JMax=2 DiffMx= 0.00D+00
 Leave Link 1102 at Wed Sep  3 17:12:58 2025, MaxMem= 12348030976 cpu:               0.8 elap:               0.1
 (Enter /home/hhratchian/gaussian/gdv-20250101-j30+/gdv/l1110.exe)
 Forming Gx(P) for the SCF density, NAtomX=     2.
 Integral derivatives from FoFJK, PRISM(SPDF).
 Do as many integral derivatives as possible in FoFJK.
 G2DrvN: MDV=   12348030628.
 G2DrvN: will do     3 centers at a time, making    1 passes.
 Calling FoFCou, ICntrl=  3107 FMM=F I1Cent=   0 AccDes= 0.00D+00.
 FoFJK:  IHMeth= 1 ICntrl=    3107 DoSepK=T KAlg= 0 I1Cent=           0 FoldK=F
 IRaf=         1 NMat=       1 IRICut=       1 DoRegI=T DoRafI=F ISym2E= 1 IDoP0=0 IntGTp=1.
 FoFCou: FMM=F IPFlag=           0 FMFlag=      100000 FMFlg1=           0
         NFxFlg=           0 DoJE=F BraDBF=F KetDBF=F FulRan=T
         wScrn=  0.000000 ICntrl=      3507 IOpCl=  0 I1Cent=           0 NGrid=           0
         NMat0=    1 NMatS0=      1 NMatT0=    0 NMatD0=    1 NMtDS0=    0 NMtDT0=    0
 Petite list used in FoFCou.
 End of G2Drv FD prop file    721 does not exist.
 End of G2Drv FD prop file    722 does not exist.
 End of G2Drv FD prop file    788 does not exist.
 End of G2Drv FD prop file    804 does not exist.
 Leave Link 1110 at Wed Sep  3 17:12:58 2025, MaxMem= 12348030976 cpu:               5.3 elap:               0.2
 (Enter /home/hhratchian/gaussian/gdv-20250101-j30+/gdv/l1002.exe)
 Minotr:  Closed shell wavefunction.
          IDoAtm=11
          Direct CPHF calculation.
          Differentiating once with respect to electric field.
                with respect to dipole field.
          Differentiating once with respect to nuclear coordinates.
          Using symmetry in CPHF.
          Requested convergence is 1.0D-08 RMS, and 1.0D-07 maximum.
          Secondary convergence is 1.0D-12 RMS, and 1.0D-12 maximum.
          NewPWx=T KeepS1=F KeepF1=F KeepIn=T MapXYZ=F SortEE=F KeepMc=T.
          984 words used for storage of precomputed grid.
 Keep R1 ints in memory in symmetry-blocked form, NReq=48235876.
 FoFCou: FMM=F IPFlag=           0 FMFlag=           0 FMFlg1=           0
         NFxFlg=           0 DoJE=F BraDBF=F KetDBF=F FulRan=T
         wScrn=  0.000000 ICntrl=       600 IOpCl=  0 I1Cent=           0 NGrid=           0
         NMat0=    1 NMatS0=     55 NMatT0=    0 NMatD0=    1 NMtDS0=    0 NMtDT0=    0
 Petite list used in FoFCou.
          MDV=   12348030976 using Grid=Fine.
          Solving linear equations simultaneously, MaxMat=       0.
          There are     6 degrees of freedom in the 1st order CPHF.  IDoFFX=4 NUNeed=     6.
      6 vectors produced by pass  0 Test12= 1.50D-16 1.67D-08 XBig12= 2.44D+00 1.56D+00.
 AX will form     6 AO Fock derivatives at one time.
      2 vectors produced by pass  1 Test12= 1.50D-16 1.67D-08 XBig12= 2.39D-02 1.54D-01.
      1 vectors produced by pass  2 Test12= 1.50D-16 1.67D-08 XBig12= 1.43D-06 1.19D-03.
 InvSVY:  IOpt=1 It=  1 EMax= 2.78D-17
 Solved reduced A of dimension     9 with     6 vectors.
 FullF1:  Do perturbations      1 to       6.
 Isotropic polarizability for W=    0.000000        2.53 Bohr**3.
 End of Minotr FD prop file    721 does not exist.
 End of Minotr FD prop file    722 does not exist.
 End of Minotr FD prop file    788 does not exist.
 End of Minotr FD prop file    804 does not exist.
 Leave Link 1002 at Wed Sep  3 17:13:01 2025, MaxMem= 12348030976 cpu:             184.2 elap:               3.4
 (Enter /home/hhratchian/gaussian/gdv-20250101-j30+/gdv/l601.exe)
 Copying SCF densities to generalized density rwf, IOpCl= 0 IROHF=0.
 
 **********************************************************************
 
               Population analysis using the SCF Density.
 
 **********************************************************************
 
 Orbital symmetries:
       Occupied  (SGG)
       Virtual   (SGU) (SGG) (SGU) (PIU) (PIU) (SGG) (PIG) (PIG)
                 (SGU)
 The electronic state is 1-SGG.
 Alpha  occ. eigenvalues --       -0.49711
 Alpha virt. eigenvalues --        0.15365       0.64007       1.10643       1.75051       1.75051
 Alpha virt. eigenvalues --        2.45298       2.69111       2.69111       4.22255
          Condensed to atoms (all electrons):
               1          2
     1  H    0.588300   0.411700
     2  H    0.411700   0.588300
 Mulliken charges:
               1
     1  H   -0.000000
     2  H   -0.000000
 Sum of Mulliken charges=  -0.00000
 Mulliken charges with hydrogens summed into heavy atoms:
               1
 APT charges:
               1
     1  H   -0.000000
     2  H   -0.000000
 Sum of APT charges=  -0.00000
 APT charges with hydrogens summed into heavy atoms:
               1
 Electronic spatial extent (au):  <R**2>=              5.1740
 Charge=             -0.0000 electrons
 Dipole moment (field-independent basis, Debye):
    X=             -0.0000    Y=              0.0000    Z=             -0.0000  Tot=              0.0000
 Quadrupole moment (field-independent basis, Debye-Ang):
   XX=             -2.0515   YY=             -2.0515   ZZ=             -1.5233
   XY=             -0.0000   XZ=             -0.0000   YZ=              0.0000
 Traceless Quadrupole moment (field-independent basis, Debye-Ang):
   XX=             -0.1761   YY=             -0.1761   ZZ=              0.3521
   XY=             -0.0000   XZ=             -0.0000   YZ=              0.0000
 Octapole moment (field-independent basis, Debye-Ang**2):
  XXX=             -0.0000  YYY=              0.0000  ZZZ=             -0.0000  XYY=             -0.0000
  XXY=             -0.0000  XXZ=              0.0000  XZZ=             -0.0000  YZZ=             -0.0000
  YYZ=              0.0000  XYZ=              0.0000
 Hexadecapole moment (field-independent basis, Debye-Ang**3):
 XXXX=             -1.9106 YYYY=             -1.9106 ZZZZ=             -2.8150 XXXY=             -0.0000
 XXXZ=              0.0000 YYYX=             -0.0000 YYYZ=              0.0000 ZZZX=              0.0000
 ZZZY=              0.0000 XXYY=             -0.6369 XXZZ=             -0.8027 YYZZ=             -0.8027
 XXYZ=              0.0000 YYXZ=              0.0000 ZZXY=             -0.0000
 N-N=           0.710343 E-N=          -3.627673  KE=           1.130281
 Symmetry AG   KE=           1.130281
 Symmetry B1G  KE=           0.000000
 Symmetry B2G  KE=           0.000000
 Symmetry B3G  KE=           0.000000
 Symmetry AU   KE=           0.000000
 Symmetry B1U  KE=           0.000000
 Symmetry B2U  KE=           0.000000
 Symmetry B3U  KE=           0.000000
 No NMR shielding tensors so no spin-rotation constants.
 Leave Link  601 at Wed Sep  3 17:13:05 2025, MaxMem= 12348030976 cpu:               3.7 elap:               0.1
 (Enter /home/hhratchian/gaussian/gdv-20250101-j30+/gdv/l701.exe)
 ... and contract with generalized density number  0.
 Compute integral second derivatives.
 Leave Link  701 at Wed Sep  3 17:13:06 2025, MaxMem= 12348030976 cpu:               3.9 elap:               0.1
 (Enter /home/hhratchian/gaussian/gdv-20250101-j30+/gdv/l702.exe)
 L702 exits ... SP integral derivatives will be done elsewhere.
 Leave Link  702 at Wed Sep  3 17:13:06 2025, MaxMem= 12348030976 cpu:               0.1 elap:               0.0
 (Enter /home/hhratchian/gaussian/gdv-20250101-j30+/gdv/l703.exe)
 Integral derivatives from FoFJK, PRISM(SPDF).
 Compute integral second derivatives, UseDBF=F ICtDFT=           0.
 Calling FoFJK, ICntrl=    100127 FMM=F ISym2X=1 I1Cent= 0 IOpClX= 0 NMat=1 NMatS=1 NMatT=0.
 FoFJK:  IHMeth= 1 ICntrl=  100127 DoSepK=T KAlg= 0 I1Cent=           0 FoldK=F
 IRaf=         1 NMat=       1 IRICut=       1 DoRegI=T DoRafI=F ISym2E= 1 IDoP0=0 IntGTp=1.
 FoFCou: FMM=F IPFlag=           0 FMFlag=      100000 FMFlg1=         800
         NFxFlg=           0 DoJE=F BraDBF=F KetDBF=F FulRan=T
         wScrn=  0.000000 ICntrl=    100527 IOpCl=  0 I1Cent=           0 NGrid=           0
         NMat0=    1 NMatS0=      1 NMatT0=    0 NMatD0=    1 NMtDS0=    0 NMtDT0=    0
 Petite list used in FoFCou.
 Leave Link  703 at Wed Sep  3 17:13:06 2025, MaxMem= 12348030976 cpu:               5.8 elap:               0.2
 (Enter /home/hhratchian/gaussian/gdv-20250101-j30+/gdv/l716.exe)
 Dipole        =-8.62816615D-32 7.82020874D-36-2.87948850D-17
 Polarizability= 5.78675021D-01 0.00000000D+00 5.78675021D-01
                 1.76112276D-13 0.00000000D+00 6.42473222D+00
 Full mass-weighted force constant matrix:
 Low frequencies ---  -44.8150  -44.8150   -0.0001    0.0001    0.0001 4461.8669
 Diagonal vibrational polarizability:
        0.0000000       0.0000000       0.0000000
 Harmonic frequencies (cm**-1), IR intensities (KM/Mole), Raman scattering
 activities (A**4/AMU), depolarization ratios for plane and unpolarized
 incident light, reduced masses (AMU), force constants (mDyne/A),
 and normal coordinates:
                      1
                     SGG
 Frequencies --   4461.8669
 Red. masses --      1.0078
 Frc consts  --     11.8214
 IR Inten    --      0.0000
  Atom  AN      X      Y      Z
     1   1    -0.00   0.00   0.71
     2   1     0.00  -0.00  -0.71

 -------------------
 - Thermochemistry -
 -------------------
 Temperature 298.150 Kelvin.  Pressure 1.00000 Atm.
 Atom     1 has atomic number  1 and mass   1.00783
 Atom     2 has atomic number  1 and mass   1.00783
 Molecular mass:     2.01565 amu.
 Principal axes and moments of inertia in atomic units:
                                 1                 2                 3
     Eigenvalues --           -0.000000          0.998664          0.998664
           X                  -0.000000          0.707107          0.707107
           Y                  -0.000000          0.707107         -0.707107
           Z                   1.000000          0.000000          0.000000
 This molecule is a prolate symmetric top.
 Rotational symmetry number  2.
 Rotational temperature (Kelvin)     86.72980
 Rotational constant (GHZ):        1807.155725
 Zero-point vibrational energy      26687.9 (Joules/Mol)
                                    6.37856 (Kcal/Mol)
 Vibrational temperatures:   6419.63
          (Kelvin)
 
 Zero-point correction=                           0.010165 (Hartree/Particle)
 Thermal correction to Energy=                    0.012525
 Thermal correction to Enthalpy=                  0.013470
 Thermal correction to Gibbs Free Energy=        -0.001328
 Sum of electronic and zero-point Energies=             -1.159893
 Sum of electronic and thermal Energies=                -1.157532
 Sum of electronic and thermal Enthalpies=              -1.156588
 Sum of electronic and thermal Free Energies=           -1.171386
 
                     E (Thermal)             CV                S
                      KCal/Mol        Cal/Mol-Kelvin    Cal/Mol-Kelvin
 Total                    7.860              4.968             31.144
 Electronic               0.000              0.000              0.000
 Translational            0.889              2.981             28.080
 Rotational               0.592              1.987              3.064
 Vibrational              6.379              0.000              0.000
                       Q            Log10(Q)             Ln(Q)
 Total Bot       0.408128D+01          0.610797          1.406411
 Total V=0       0.193336D+06          5.286313         12.172186
 Vib (Bot)       0.211098D-04         -4.675516        -10.765774
 Vib (V=0)       0.100000D+01          0.000000          0.000000
 Electronic      0.100000D+01          0.000000          0.000000
 Translational   0.112480D+06          5.051077         11.630534
 Rotational      0.171884D+01          0.235236          0.541652
 ***** Axes restored to original set *****
 -------------------------------------------------------------------
 Center     Atomic                   Forces (Hartrees/Bohr)
 Number     Number              X              Y              Z
 -------------------------------------------------------------------
      1        1           0.000000000   -0.000000000   -0.000053918
      2        1          -0.000000000    0.000000000    0.000053918
 -------------------------------------------------------------------
 Cartesian Forces:  Max     0.000053918 RMS     0.000031130
 Force constants in Cartesian coordinates: 
                1             2             3             4             5 
      1 -0.382995D-04
      2  0.000000D+00 -0.382995D-04
      3  0.000000D+00  0.000000D+00  0.379647D+00
      4  0.382995D-04  0.000000D+00  0.000000D+00 -0.382995D-04
      5  0.000000D+00  0.382995D-04  0.000000D+00  0.000000D+00 -0.382995D-04
      6  0.000000D+00  0.000000D+00 -0.379647D+00  0.000000D+00  0.000000D+00
                6 
      6  0.379647D+00
 FormGI is forming the generalized inverse of G from B-inverse, IUseBI=4.
 NTrRot=    -1 NTRed=     1 NAtoms=     2 NSkip=     0 NRank=     1 IsLin=T EigSml=2.0000D+00
 Force constants in internal coordinates: 
                1 
      1  0.379647D+00
 Leave Link  716 at Wed Sep  3 17:13:06 2025, MaxMem= 12348030976 cpu:               0.9 elap:               0.1
 (Enter /home/hhratchian/gaussian/gdv-20250101-j30+/gdv/l103.exe)

 GradGradGradGradGradGradGradGradGradGradGradGradGradGradGradGradGradGrad
 Berny optimization.
 Internal  Forces:  Max     0.000053918 RMS     0.000053918
 Search for a local minimum.
 Step number   1 out of a maximum of    2
 All quantities printed in internal units (Hartrees-Bohrs-Radians)
 Second derivative matrix not updated -- analytic derivatives used.
 The second derivative matrix:
                          R1
           R1           0.37965
 ITU=  0
     Eigenvalues ---    0.37965
 Angle between quadratic step and forces=   0.00 degrees.
 Linear search not attempted -- first point.
 GrdOpt: GIC=T ITstSp=  0 NP=   1 DidLin=F DidDIS=F IDoGRo=0 IDoRot=0
         ISwap=1 XLin= 0.000 DXMaxT= 0.300
 Iteration  1 RMS(Cart)=  0.00004100 RMS(Int)=  0.00000000
 Iteration  2 RMS(Cart)=  0.00000000 RMS(Int)=  0.00000000
 ClnCor:  largest displacement from symmetrization is 2.22D-16 for atom     2.
 Variable       Old X    -DE/DX   Delta X   Delta X   Delta X     New X
                                 (Linear)    (Quad)   (Total)
    R1        1.40777   0.00005   0.00000   0.00014   0.00014   1.40791
         Item               Value     Threshold  Converged?
 Maximum Force            0.000054     0.000450     YES
 RMS     Force            0.000054     0.000300     YES
 Maximum Displacement     0.000071     0.001800     YES
 RMS     Displacement     0.000100     0.001200     YES
 Predicted change in Energy=-3.828779D-09
 Optimization completed.
    -- Stationary point found.
                           ----------------------------
                           !   Optimized Parameters   !
                           ! (Angstroms and Degrees)  !
 --------------------------                            --------------------------
 ! Name  Definition              Value          Derivative Info.                !
 --------------------------------------------------------------------------------
 ! R1    R(1,2)                  0.745          -DE/DX =    0.0001              !
 --------------------------------------------------------------------------------
 GradGradGradGradGradGradGradGradGradGradGradGradGradGradGradGradGradGrad

 Leave Link  103 at Wed Sep  3 17:13:06 2025, MaxMem= 12348030976 cpu:               0.8 elap:               0.1
 (Enter /home/hhratchian/gaussian/gdv-20250101-j30+/gdv/local/l9999.exe)
 Dipole is zero, so no output in dipole orientation.

 ----------------------------------------------------------------------

 Electric dipole moment (input orientation):
 (Debye = 10**-18 statcoulomb cm , SI units = C m)
                  (au)            (Debye)         (10**-30 SI)
   Tot        0.000000D+00      0.000000D+00      0.000000D+00
   x          0.000000D+00      0.000000D+00      0.000000D+00
   y          0.000000D+00      0.000000D+00      0.000000D+00
   z          0.000000D+00      0.000000D+00      0.000000D+00

 Dipole polarizability, Alpha (input orientation).
 (esu units = cm**3 , SI units = C**2 m**2 J**-1)
 Alpha(0;0):
               (au)            (10**-24 esu)      (10**-40 SI)
   iso        0.252736D+01      0.374516D+00      0.416705D+00
   aniso      0.584606D+01      0.866296D+00      0.963885D+00
   xx         0.578675D+00      0.857508D-01      0.954106D-01
   yx         0.000000D+00      0.000000D+00      0.000000D+00
   yy         0.578675D+00      0.857508D-01      0.954106D-01
   zx         0.000000D+00      0.000000D+00      0.000000D+00
   zy         0.000000D+00      0.000000D+00      0.000000D+00
   zz         0.642473D+01      0.952047D+00      0.105930D+01

 ----------------------------------------------------------------------
 Unable to Open any file for archive entry.
 1\1\GINC-NODE035\Freq\RCAM-B3LYP\Gen\H2\AABOUTAKA\03-Sep-2025\0\\#P Ge
 om=AllCheck Guess=TCheck SCRF=Check GenChk RCAM-B3LYP/ChkBas Freq\\H2 
 — CAM-B3LYP/6-31+G(d,p) q=0 m=1 [1/3: Stability]\\0,1\H,0.,0.,-0.002
 4802426\H,0.,0.,0.7424802426\\Version=ES64L-GDVRevJ.30+\State=1-SGG\HF
 =-1.1700577\RMSD=2.776e-18\RMSF=3.113e-05\ZeroPoint=0.0101649\Thermal=
 0.0125253\ETot=-1.1575324\HTot=-1.1565882\GTot=-1.1713856\Dipole=0.,0.
 ,0.\DipoleDeriv=0.,0.,0.,0.,0.,0.,0.,0.,0.,0.,0.,0.,0.,0.,0.,0.,0.,0.\
 Polar=0.578675,0.,0.578675,0.,0.,6.4247322\Quadrupole=-0.130906,-0.130
 906,0.2618119,0.,0.,0.\PG=D*H [C*(H1.H1)]\NImag=0\\-0.00003830,0.,-0.0
 0003830,0.,0.,0.37964686,0.00003830,0.,0.,-0.00003830,0.,0.00003830,0.
 ,0.,-0.00003830,0.,0.,-0.37964686,0.,0.,0.37964686\\0.,0.,0.00005392,0
 .,0.,-0.00005392\\\@
 The archive entry for this job was punched.


 AN OPTIMIST IS A GUY
 THAT HAS NEVER HAD
 MUCH EXPERIENCE
   (CERTAIN MAXIMS OF ARCHY  -- DON MARQUIS)
 Job cpu time:       0 days  0 hours  3 minutes 48.0 seconds.
 Elapsed time:       0 days  0 hours  0 minutes  5.4 seconds.
 File lengths (MBytes):  RWF=     38 Int=      0 D2E=      0 Chk=     17 Scr=      2
 Normal termination of Gaussian DV at Wed Sep  3 17:13:06 2025.
 Initial command:
 /home/hhratchian/gaussian/gdv-20250101-j30+/gdv/local/l1.exe "/scratch/aaboutaka/1590310/Gau-3603650.inp" -scrdir="/scratch/aaboutaka/1590310/"
 Default is to use a total of  56 processors:
                               56 via shared-memory
                                1 via Linda
 Entering Link 1 = /home/hhratchian/gaussian/gdv-20250101-j30+/gdv/local/l1.exe PID=   3607181.
  
 Copyright (c) 1988-2024, Gaussian, Inc.  All Rights Reserved.
  
 This is the private, development version of
 the Gaussian(R) DV system of programs. It is based on
 the Gaussian(R) 16 system (copyright 2016, Gaussian, Inc.),
 the Gaussian(R) 09 system (copyright 2009, Gaussian, Inc.),
 the Gaussian(R) 03 system (copyright 2003, Gaussian, Inc.),
 the Gaussian(R) 98 system (copyright 1998, Gaussian, Inc.),
 the Gaussian(R) 94 system (copyright 1995, Gaussian, Inc.),
 the Gaussian 92(TM) system (copyright 1992, Gaussian, Inc.),
 the Gaussian 90(TM) system (copyright 1990, Gaussian, Inc.),
 the Gaussian 88(TM) system (copyright 1988, Gaussian, Inc.),
 the Gaussian 86(TM) system (copyright 1986, Carnegie Mellon
 University), and the Gaussian 82(TM) system (copyright 1983,
 Carnegie Mellon University). Gaussian is a federally registered
 trademark of Gaussian, Inc.
  
 This software contains proprietary and confidential information,
 including trade secrets, belonging to Gaussian, Inc.
  
 This software is provided under written license and may be
 used, copied, transmitted, or stored only in accord with that
 written license.
  
 The following legend is applicable only to US Government
 contracts under FAR:
  
                    RESTRICTED RIGHTS LEGEND
  
 Use, reproduction and disclosure by the US Government is
 subject to restrictions as set forth in subparagraphs (a)
 and (c) of the Commercial Computer Software - Restricted
 Rights clause in FAR 52.227-19.
  
 Gaussian, Inc.
 340 Quinnipiac St., Bldg. 40, Wallingford CT 06492
  
  
 ---------------------------------------------------------------
 Warning -- This program may not be used in any manner that
 competes with the business of Gaussian, Inc. or will provide
 assistance to any competitor of Gaussian, Inc.  The licensee
 of this program is prohibited from giving any competitor of
 Gaussian, Inc. access to this program.  By using this program,
 the user acknowledges that Gaussian, Inc. is engaged in the
 business of creating and licensing software in the field of
 computational chemistry and represents and warrants to the
 licensee that it is not a competitor of Gaussian, Inc. and that
 it will not use this program in any manner prohibited above.
 ---------------------------------------------------------------
  

 Cite this work as:
 Gaussian Development Version, Revision J.30+,
 M. J. Frisch, G. W. Trucks, G. Scalmani, J. R. Cheeseman, X. Li, 
 J. Bloino, B. G. Janesko, A. V. Marenich, J. Zheng, F. Lipparini, 
 A. Jenkins, A. Liu, H. Liu, H. B. Schlegel, G. E. Scuseria, 
 M. A. Robb, V. Barone, G. A. Petersson, H. Nakatsuji, B. Mennucci, 
 C. Adamo, N. Rega, M. Caricato, H. P. Hratchian, J. V. Ortiz, 
 F. Pawlowski, A. F. Izmaylov, H. Hu, C. Liao, J. L. Sonnenberg, 
 D. Williams-Young, F. Ding, R. Gomperts, F. Egidi, J. Goings, 
 B. Peng, A. Petrone, T. Henderson, D. Ranasinghe, V. G. Zakrzewski, 
 J. Gao, G. Zheng, W. Liang, M. Hada, M. Ehara, K. Toyota, R. Fukuda, 
 J. Hasegawa, M. Ishida, T. Nakajima, Y. Honda, O. Kitao, H. Nakai, 
 T. Vreven, K. Throssell, J. A. Montgomery, Jr., J. E. Peralta, 
 F. Ogliaro, M. J. Bearpark, J. J. Heyd, E. N. Brothers, K. N. Kudin, 
 V. N. Staroverov, T. A. Keith, R. Kobayashi, J. Normand, 
 K. Raghavachari, A. P. Rendell, J. C. Burant, S. S. Iyengar, 
 M. Cossi, J. M. Millam, M. Klene, R. Cammi, R. L. Martin, O. Farkas, 
 J. B. Foresman, and D. J. Fox, Gaussian, Inc., Wallingford CT, 2024.
 
 *******************************************
 Gaussian DV:  ES64L-GDVRevJ.30+ 18-Dec-2024
                  3-Sep-2025 
 *******************************************
 %chk=H2_CAM-B3LYP_6-31+Gdp_q0_m1.chk
 ---------------------------------------------------------
 #p CAM-B3LYP stable=opt guess=read chkbasis geom=allcheck
 ---------------------------------------------------------
 1/29=7,38=1,172=1/1;
 2/12=2/2;
 3/5=7,6=2,11=2,14=-4,25=1,30=1,67=1,74=-40,116=-2/1,2,3;
 4/5=1/1;
 5/5=2,38=6/2;
 6/7=2,8=2,9=2,10=2,28=1/1;
 8/6=1,10=90,11=11/1;
 9/8=-3,42=1,46=1/14;
 5/5=2,8=3,17=40,38=6/8(-2);
 6/7=2,8=2,9=2,10=2,28=1/1;
 99/5=1,9=1/99;
 Leave Link    1 at Wed Sep  3 17:13:06 2025, MaxMem=           0 cpu:               0.2 elap:               0.0
 (Enter /home/hhratchian/gaussian/gdv-20250101-j30+/gdv/local/l101.exe)
 
  Hrant - IAPOps =                         0
  Hrant - IAPOp1 =                         0
  Hrant - IAPOp2 =                         0
  Hrant - DoAP   =   F
 
 Structure from the checkpoint file:  "H2_CAM-B3LYP_6-31+Gdp_q0_m1.chk"
 -----------------------------------------------------
 H2 — CAM-B3LYP/6-31+G(d,p) q=0 m=1 [1/3: Stability]
 -----------------------------------------------------
 Charge =     0 Multiplicity =     1
 Redundant internal coordinates found in file.  (GICs).
 H,0,0.,0.,-0.0024802426
 H,0,0.,0.,0.7424802426
 
 Recover connectivity data from disk.
 Reading GIC definitions from chk.
 Reading GIC derivative info from chk.
 ITRead=  0  0
 MicOpt= -1 -1
                           ----------------------------
                           !    Current Parameters    !
                           ! (Angstroms and Degrees)  !
 --------------------------                            --------------------------
 ! Name  Definition              Value                                          !
 --------------------------------------------------------------------------------
 ! R1    R(1,2)                  0.745                                          !
 --------------------------------------------------------------------------------
 NAtoms=      2 NQM=        2 NQMF=       0 NMMI=      0 NMMIF=      0
                NMic=       0 NMicF=      0.
                    Isotopes and Nuclear Properties:
 (Nuclear quadrupole moments (NQMom) in fm**2, nuclear magnetic moments (NMagM)
  in nuclear magnetons)

  Atom         1           2
 IAtWgt=           1           1
 AtmWgt=   1.0078250   1.0078250
 NucSpn=           1           1
 AtZEff=    1.000000    1.000000
 NQMom=    0.0000000   0.0000000
 NMagM=    2.7928460   2.7928460
 AtZNuc=   1.0000000   1.0000000
 Leave Link  101 at Wed Sep  3 17:13:06 2025, MaxMem= 12348030976 cpu:               0.5 elap:               0.3
 (Enter /home/hhratchian/gaussian/gdv-20250101-j30+/gdv/l202.exe)
                          Input orientation:                          
 ---------------------------------------------------------------------
 Center     Atomic      Atomic             Coordinates (Angstroms)
 Number     Number       Type             X           Y           Z
 ---------------------------------------------------------------------
      1          1           0        0.000000    0.000000   -0.002480
      2          1           0        0.000000    0.000000    0.742480
 ---------------------------------------------------------------------
 Stoichiometry    H2
 Framework group  D*H[C*(H.H)]
 Deg. of freedom     1
 Full point group                 D*H     NOp   8
 RotChk:  IX=0 Diff= 0.00D+00
 Largest Abelian subgroup         D2H     NOp   8
 Largest concise Abelian subgroup C2      NOp   2
                         Standard orientation:                         
 ---------------------------------------------------------------------
 Center     Atomic      Atomic             Coordinates (Angstroms)
 Number     Number       Type             X           Y           Z
 ---------------------------------------------------------------------
      1          1           0        0.000000    0.000000    0.372480
      2          1           0        0.000000    0.000000   -0.372480
 ---------------------------------------------------------------------
 Rotational constants (GHZ):           0.0000000        1807.1557252        1807.1557252
 Leave Link  202 at Wed Sep  3 17:13:06 2025, MaxMem= 12348030976 cpu:               0.4 elap:               0.0
 (Enter /home/hhratchian/gaussian/gdv-20250101-j30+/gdv/local/l301.exe)
 Basis read from chk: "H2_CAM-B3LYP_6-31+Gdp_q0_m1.chk" (6D, 7F)
 No pseudopotential information found on chk file.
 There are     3 symmetry adapted cartesian basis functions of AG  symmetry.
 There are     0 symmetry adapted cartesian basis functions of B1G symmetry.
 There are     1 symmetry adapted cartesian basis functions of B2G symmetry.
 There are     1 symmetry adapted cartesian basis functions of B3G symmetry.
 There are     0 symmetry adapted cartesian basis functions of AU  symmetry.
 There are     3 symmetry adapted cartesian basis functions of B1U symmetry.
 There are     1 symmetry adapted cartesian basis functions of B2U symmetry.
 There are     1 symmetry adapted cartesian basis functions of B3U symmetry.
 There are     3 symmetry adapted basis functions of AG  symmetry.
 There are     0 symmetry adapted basis functions of B1G symmetry.
 There are     1 symmetry adapted basis functions of B2G symmetry.
 There are     1 symmetry adapted basis functions of B3G symmetry.
 There are     0 symmetry adapted basis functions of AU  symmetry.
 There are     3 symmetry adapted basis functions of B1U symmetry.
 There are     1 symmetry adapted basis functions of B2U symmetry.
 There are     1 symmetry adapted basis functions of B3U symmetry.
    10 basis functions,    14 primitive gaussians,    10 cartesian basis functions
     1 alpha electrons        1 beta electrons
       nuclear repulsion energy         0.7103426578 Hartrees.
 IExCor=   2004019 DFT=T Ex+Corr=CAM-B3LYP ScaHFX=  1.000000
 ScaDFX=  1.000000  1.000000  1.000000  0.810000  1.000000  0.000000
 ScaDFX=  0.000000  0.000000  0.000000  0.000000  0.000000  0.000000
 Grid=UltraFine IRanWt=     -1 IRanGd=            0 ICorTp=0 IEDCtl=  2004
 HFx  wShort=  0.000000 wLong=  0.330000 cFull=  0.190000 cShort=  0.000000 cLong=  0.460000
 DFx  wShort=  0.330000 wLong=  0.000000 cFull=  0.350000 cShort=  0.460000 cLong=  0.000000
 NAtoms=    2 NActive=    2 NUniq=    1 SFac= 4.00D+00 NAtFMM=   60 NAOKFM=F Big=F
 Integral buffers will be    131072 words long.
 Raffenetti 2 integral format.
 Two-electron integral symmetry is turned on.
 No density basis found on file 200724.
 Leave Link  301 at Wed Sep  3 17:13:06 2025, MaxMem= 12348030976 cpu:               0.2 elap:               0.1
 (Enter /home/hhratchian/gaussian/gdv-20250101-j30+/gdv/l302.exe)
 NPDir=0 NMtPBC=     1 NCelOv=     1 NCel=       1 NClECP=     1 NCelD=      1
         NCelK=      1 NCelE2=     1 NClLst=     1 CellRange=     0.0.
 One-electron integrals computed using PRISM.
 One-electron integral symmetry used in STVInt
 NBasis=    10 RedAO= T EigKep=  9.72D-02  NBF=     3     0     1     1     0     3     1     1
 NBsUse=    10 1.00D-06 EigRej= -1.00D+00 NBFU=     3     0     1     1     0     3     1     1
 Precomputing XC quadrature grid using
 IXCGrd=   9 Grid=UltraFine IRanWt=          -1 IRanGd=           0 AccXCQ= 0.00D+00.
 Generated NRdTot=       0 NPtTot=       45217 NUsed=           0 NTot=          64
 NSgBfM=    10    10    10    10    10 MxSgAt=     2 MxSgA2=     2 SizInc=   0.000
 NMBTot=      428 MaxBatPerAtom=       80 MaxMicBPerAtom=      215 NBfPt=              380330.
 Leave Link  302 at Wed Sep  3 17:13:07 2025, MaxMem= 12348030976 cpu:               1.7 elap:               0.1
 (Enter /home/hhratchian/gaussian/gdv-20250101-j30+/gdv/l303.exe)
 DipDrv:  MaxL=1.
 Leave Link  303 at Wed Sep  3 17:13:07 2025, MaxMem= 12348030976 cpu:               0.2 elap:               0.0
 (Enter /home/hhratchian/gaussian/gdv-20250101-j30+/gdv/l401.exe)
 Initial guess from the checkpoint file:  "H2_CAM-B3LYP_6-31+Gdp_q0_m1.chk"
 B after Tr=     0.000000    0.000000    0.000000
         Rot=    1.000000    0.000000    0.000000    0.000000 Ang=   0.00 deg.
 AO Guess basis will be translated and rotated to current coordinates.
 JPrj=2 DoOrth=T DoCkMO=T.
 Initial guess orbital symmetries:
       Occupied  (SGG)
       Virtual   (SGU) (SGG) (SGU) (PIU) (PIU) (SGG) (PIG) (PIG)
                 (SGU)
 The electronic state of the initial guess is 1-SGG.
 Leave Link  401 at Wed Sep  3 17:13:07 2025, MaxMem= 12348030976 cpu:               0.4 elap:               0.1
 (Enter /home/hhratchian/gaussian/gdv-20250101-j30+/gdv/local/l502.exe)
 Keep R1 ints in memory in symmetry-blocked form, NReq=48371868.
 FoFCou: FMM=F IPFlag=           0 FMFlag=           0 FMFlg1=           0
         NFxFlg=           0 DoJE=F BraDBF=F KetDBF=F FulRan=T
         wScrn=  0.000000 ICntrl=       600 IOpCl=  0 I1Cent=           0 NGrid=           0
         NMat0=    1 NMatS0=     55 NMatT0=    0 NMatD0=    1 NMtDS0=    0 NMtDT0=    0
 Petite list used in FoFCou.
 Closed shell SCF:
 Using DIIS extrapolation, IDIIS=  1040.
 NGot= 12348030976 LenX= 12348027340 LenY= 12348026458
 Requested convergence on RMS density matrix=1.00D-08 within 128 cycles.
 Requested convergence on MAX density matrix=1.00D-06.
 Requested convergence on             energy=1.00D-06.
 No special actions if energy rises.
 
  Hrant - CycOpn.
 

 Cycle   1  Pass 1  IDiag  1:
 E= -1.17005773140551    
 DIIS: error= 1.15D-10 at cycle   1 NSaved=   1.
 NSaved= 1 IEnMin= 1 EnMin= -1.17005773140551     IErMin= 1 ErrMin= 1.15D-10
 ErrMax= 1.15D-10  0.00D+00 EMaxC= 1.00D-01 BMatC= 2.83D-20 BMatP= 2.83D-20
 Rises=F IDIUse=1 WtCom= 1.00D+00 WtEn= 0.00D+00
 Coeff-Com:  0.100D+01
 Coeff:      0.100D+01
 Gap=     0.651 Goal=   None    Shift=    0.000
 Skip diagonalization as Alpha Fock matrix is already diagonal.
 RMSDP=4.10D-20 MaxDP=7.79D-20              OVMax= 0.00D+00

 SCF Done:  E(RCAM-B3LYP) =  -1.17005773141     A.U. after    1 cycles
            NFock=  1  Conv=0.41D-19     -V/T= 2.0352
 KE=           1.130281 PE=          -3.627673 EE=           0.616991
 Leave Link  502 at Wed Sep  3 17:13:07 2025, MaxMem= 12348030976 cpu:               3.0 elap:               0.1
 (Enter /home/hhratchian/gaussian/gdv-20250101-j30+/gdv/l601.exe)
 Copying SCF densities to generalized density rwf, IOpCl= 0 IROHF=0.
 
 **********************************************************************
 
               Population analysis using the SCF Density.
 
 **********************************************************************
 
 Orbital symmetries:
       Occupied  (SGG)
       Virtual   (SGU) (SGG) (SGU) (PIU) (PIU) (SGG) (PIG) (PIG)
                 (SGU)
 The electronic state is 1-SGG.
 Alpha  occ. eigenvalues --       -0.49711
 Alpha virt. eigenvalues --        0.15365       0.64007       1.10643       1.75051       1.75051
 Alpha virt. eigenvalues --        2.45298       2.69111       2.69111       4.22255
          Condensed to atoms (all electrons):
               1          2
     1  H    0.588300   0.411700
     2  H    0.411700   0.588300
 Mulliken charges:
               1
     1  H   -0.000000
     2  H   -0.000000
 Sum of Mulliken charges=  -0.00000
 Mulliken charges with hydrogens summed into heavy atoms:
               1
 Electronic spatial extent (au):  <R**2>=              5.1740
 Charge=             -0.0000 electrons
 Dipole moment (field-independent basis, Debye):
    X=             -0.0000    Y=             -0.0000    Z=             -0.0000  Tot=              0.0000
 Quadrupole moment (field-independent basis, Debye-Ang):
   XX=             -2.0515   YY=             -2.0515   ZZ=             -1.5233
   XY=             -0.0000   XZ=             -0.0000   YZ=              0.0000
 Traceless Quadrupole moment (field-independent basis, Debye-Ang):
   XX=             -0.1761   YY=             -0.1761   ZZ=              0.3521
   XY=             -0.0000   XZ=             -0.0000   YZ=              0.0000
 Octapole moment (field-independent basis, Debye-Ang**2):
  XXX=             -0.0000  YYY=             -0.0000  ZZZ=             -0.0000  XYY=             -0.0000
  XXY=             -0.0000  XXZ=              0.0000  XZZ=             -0.0000  YZZ=              0.0000
  YYZ=              0.0000  XYZ=              0.0000
 Hexadecapole moment (field-independent basis, Debye-Ang**3):
 XXXX=             -1.9106 YYYY=             -1.9106 ZZZZ=             -2.8150 XXXY=             -0.0000
 XXXZ=              0.0000 YYYX=             -0.0000 YYYZ=              0.0000 ZZZX=              0.0000
 ZZZY=              0.0000 XXYY=             -0.6369 XXZZ=             -0.8027 YYZZ=             -0.8027
 XXYZ=              0.0000 YYXZ=              0.0000 ZZXY=             -0.0000
 N-N=           0.710343 E-N=          -3.627673  KE=           1.130281
 Symmetry AG   KE=           1.130281
 Symmetry B1G  KE=           0.000000
 Symmetry B2G  KE=           0.000000
 Symmetry B3G  KE=           0.000000
 Symmetry AU   KE=           0.000000
 Symmetry B1U  KE=           0.000000
 Symmetry B2U  KE=           0.000000
 Symmetry B3U  KE=           0.000000
 No NMR shielding tensors so no spin-rotation constants.
 Leave Link  601 at Wed Sep  3 17:13:07 2025, MaxMem= 12348030976 cpu:               2.1 elap:               0.1
 (Enter /home/hhratchian/gaussian/gdv-20250101-j30+/gdv/l801.exe)
 DoSCS=F DFT=T ScalE2(SS,OS)=  1.000000  1.000000
 Range of M.O.s used for correlation:     1    10
 NBasis=    10 NAE=     1 NBE=     1 NFC=     0 NFV=     0
 NROrb=     10 NOA=     1 NOB=     1 NVA=     9 NVB=     9
 Leave Link  801 at Wed Sep  3 17:13:07 2025, MaxMem= 12348030976 cpu:               0.2 elap:               0.0
 (Enter /home/hhratchian/gaussian/gdv-20250101-j30+/gdv/l914.exe)
 RHF ground state
 Doing stability rather than CIS.
 DoSCS=F DFT=T ScalE2(SS,OS)=  1.000000  1.000000
   ScalD2(USS,UOS,TSS,TOS,w)=  1.000000  1.000000  1.000000  1.000000  1.000000
 Keep R1 and R2 ints in memory in symmetry-blocked form, NReq=57658911.
 FoFCou: FMM=F IPFlag=           0 FMFlag=           0 FMFlg1=           0
         NFxFlg=           0 DoJE=F BraDBF=F KetDBF=F FulRan=T
         wScrn=  0.000000 ICntrl=       600 IOpCl=  0 I1Cent=           0 NGrid=           0
         NMat0=    1 NMatS0=     55 NMatT0=    0 NMatD0=    1 NMtDS0=    0 NMtDT0=    0
 Petite list used in FoFCou.
 MDV= 12348030976 DFT=T IDoStb=1 Mixed=T DoRPA=F DoScal=F NonHer=F
 Making orbital integer symmetry assigments:
 Orbital symmetries:
       Occupied  (SGG)
       Virtual   (SGU) (SGG) (SGU) (PIU) (PIU) (SGG) (PIG) (PIG)
                 (SGU)
 The electronic state is 1-SGG.
    18 initial guesses have been made.
 Convergence on wavefunction:    0.001000000000000
 Davidson Disk Diagonalization:  ConvIn= 1.00D-03 SkipCon=T Conv= 1.00D-03.
 Max sub-space:    72 initial roots:    36 roots to seek:     1 dimension of matrix:           18
 *** WARNING: Number of orthogonal guesses is           18
 Iteration     1 Dimension    18 NMult     0 NNew     18
 CISAX will form    18 AO SS matrices at one time.
 NMat=    18 NSing=     9 JSym2X=-1.
 New state      1 was old state      2
 Excitation Energies [eV] at current iteration:
 Root      1 :     8.737101081343845
 Root      2 :    16.795684372201489
 Root      3 :    20.808864556095809
 Root      4 :    31.604529383495720
 Root      5 :    32.352958553884733
 Root      6 :    43.936566945481559
 Root      7 :    46.912520226042105
 Root      8 :    46.912520226042126
 Root      9 :    59.338069551321347
 Root     10 :    59.338069551321418
 Root     11 :    65.903361115897994
 Root     12 :    72.855155419571318
 Root     13 :    72.855155419571332
 Root     14 :    74.560655313951770
 Root     15 :    79.060901342797422
 Root     16 :    79.060901342797436
 Root     17 :   113.239343251290563
 Root     18 :   119.237109877137783
 Convergence achieved for final wavefunctions.
 1PDM for each excited state written to RWF  633
 Ground to excited state transition densities written to RWF  633

 ***********************************************************************
 Stability analysis using <AA,BB:AA,BB> singles matrix:
 ***********************************************************************

 Eigenvectors of the stability matrix:
 
 Eigenvector   1:      Triplet-SGU  Eigenvalue= 0.3210826  <S**2>=2.000
       1 ->  2         0.69647
       1 ->  4        -0.12209
 The wavefunction is stable under the perturbations considered.
 Leave Link  914 at Wed Sep  3 17:13:07 2025, MaxMem= 12348030976 cpu:               4.1 elap:               0.2
 (Enter /home/hhratchian/gaussian/gdv-20250101-j30+/gdv/l508.exe)
 The wavefunction is already stable.
 Leave Link  508 at Wed Sep  3 17:13:07 2025, MaxMem= 12348030976 cpu:               0.1 elap:               0.0
 (Enter /home/hhratchian/gaussian/gdv-20250101-j30+/gdv/l601.exe)
 Copying SCF densities to generalized density rwf, IOpCl= 0 IROHF=0.
 
 **********************************************************************
 
               Population analysis using the SCF Density.
 
 **********************************************************************
 
 Orbital symmetries:
       Occupied  (SGG)
       Virtual   (SGU) (SGG) (SGU) (PIU) (PIU) (SGG) (PIG) (PIG)
                 (SGU)
 The electronic state is 1-SGG.
 Alpha  occ. eigenvalues --       -0.49711
 Alpha virt. eigenvalues --        0.15365       0.64007       1.10643       1.75051       1.75051
 Alpha virt. eigenvalues --        2.45298       2.69111       2.69111       4.22255
          Condensed to atoms (all electrons):
               1          2
     1  H    0.588300   0.411700
     2  H    0.411700   0.588300
 Mulliken charges:
               1
     1  H   -0.000000
     2  H   -0.000000
 Sum of Mulliken charges=  -0.00000
 Mulliken charges with hydrogens summed into heavy atoms:
               1
 Electronic spatial extent (au):  <R**2>=              5.1740
 Charge=             -0.0000 electrons
 Dipole moment (field-independent basis, Debye):
    X=             -0.0000    Y=             -0.0000    Z=             -0.0000  Tot=              0.0000
 Quadrupole moment (field-independent basis, Debye-Ang):
   XX=             -2.0515   YY=             -2.0515   ZZ=             -1.5233
   XY=             -0.0000   XZ=             -0.0000   YZ=              0.0000
 Traceless Quadrupole moment (field-independent basis, Debye-Ang):
   XX=             -0.1761   YY=             -0.1761   ZZ=              0.3521
   XY=             -0.0000   XZ=             -0.0000   YZ=              0.0000
 Octapole moment (field-independent basis, Debye-Ang**2):
  XXX=             -0.0000  YYY=             -0.0000  ZZZ=             -0.0000  XYY=             -0.0000
  XXY=             -0.0000  XXZ=              0.0000  XZZ=             -0.0000  YZZ=              0.0000
  YYZ=              0.0000  XYZ=              0.0000
 Hexadecapole moment (field-independent basis, Debye-Ang**3):
 XXXX=             -1.9106 YYYY=             -1.9106 ZZZZ=             -2.8150 XXXY=             -0.0000
 XXXZ=              0.0000 YYYX=             -0.0000 YYYZ=              0.0000 ZZZX=              0.0000
 ZZZY=              0.0000 XXYY=             -0.6369 XXZZ=             -0.8027 YYZZ=             -0.8027
 XXYZ=              0.0000 YYXZ=              0.0000 ZZXY=             -0.0000
 N-N=           0.710343 E-N=          -3.627673  KE=           1.130281
 Symmetry AG   KE=           1.130281
 Symmetry B1G  KE=           0.000000
 Symmetry B2G  KE=           0.000000
 Symmetry B3G  KE=           0.000000
 Symmetry AU   KE=           0.000000
 Symmetry B1U  KE=           0.000000
 Symmetry B2U  KE=           0.000000
 Symmetry B3U  KE=           0.000000
 No NMR shielding tensors so no spin-rotation constants.
 Leave Link  601 at Wed Sep  3 17:13:07 2025, MaxMem= 12348030976 cpu:               2.6 elap:               0.1
 (Enter /home/hhratchian/gaussian/gdv-20250101-j30+/gdv/local/l9999.exe)
 Unable to Open any file for archive entry.
 1\1\GINC-NODE035\Stability\RCAM-B3LYP\Gen\H2\AABOUTAKA\03-Sep-2025\0\\
 #p CAM-B3LYP stable=opt guess=read chkbasis geom=allcheck\\H2 — CAM-
 B3LYP/6-31+G(d,p) q=0 m=1 [1/3: Stability]\\0,1\H,0,0.,0.,-0.002480242
 6\H,0,0.,0.,0.7424802426\\Version=ES64L-GDVRevJ.30+\State=1-SGG\HF=-1.
 1700577\RMSD=4.097e-20\Dipole=0.,0.,0.\Quadrupole=-0.130906,-0.130906,
 0.2618119,0.,0.,0.\PG=D*H [C*(H1.H1)]\\@
 The archive entry for this job was punched.


 A warm smile is the universal language of kindness.
                             -- William Arthur Ward
 Job cpu time:       0 days  0 hours  0 minutes 16.4 seconds.
 Elapsed time:       0 days  0 hours  0 minutes  1.1 seconds.
 File lengths (MBytes):  RWF=     30 Int=      0 D2E=      0 Chk=     17 Scr=      2
 Normal termination of Gaussian DV at Wed Sep  3 17:13:07 2025.
