 Set GAUSS_MDEF to "92GB".
 Set GAUSS_PDEF to "56".
 Entering Gaussian System, Link 0=gdv
 Initial command:
 /home/hhratchian/gaussian/gdv-20250101-j30+/gdv/local/l1.exe "/scratch/aaboutaka/1590316/Gau-3241294.inp" -scrdir="/scratch/aaboutaka/1590316/"
 Default is to use a total of  56 processors:
                               56 via shared-memory
                                1 via Linda
 Entering Link 1 = /home/hhratchian/gaussian/gdv-20250101-j30+/gdv/local/l1.exe PID=   3241295.
  
 Copyright (c) 1988-2024, Gaussian, Inc.  All Rights Reserved.
  
 This is the private, development version of
 the Gaussian(R) DV system of programs. It is based on
 the Gaussian(R) 16 system (copyright 2016, Gaussian, Inc.),
 the Gaussian(R) 09 system (copyright 2009, Gaussian, Inc.),
 the Gaussian(R) 03 system (copyright 2003, Gaussian, Inc.),
 the Gaussian(R) 98 system (copyright 1998, Gaussian, Inc.),
 the Gaussian(R) 94 system (copyright 1995, Gaussian, Inc.),
 the Gaussian 92(TM) system (copyright 1992, Gaussian, Inc.),
 the Gaussian 90(TM) system (copyright 1990, Gaussian, Inc.),
 the Gaussian 88(TM) system (copyright 1988, Gaussian, Inc.),
 the Gaussian 86(TM) system (copyright 1986, Carnegie Mellon
 University), and the Gaussian 82(TM) system (copyright 1983,
 Carnegie Mellon University). Gaussian is a federally registered
 trademark of Gaussian, Inc.
  
 This software contains proprietary and confidential information,
 including trade secrets, belonging to Gaussian, Inc.
  
 This software is provided under written license and may be
 used, copied, transmitted, or stored only in accord with that
 written license.
  
 The following legend is applicable only to US Government
 contracts under FAR:
  
                    RESTRICTED RIGHTS LEGEND
  
 Use, reproduction and disclosure by the US Government is
 subject to restrictions as set forth in subparagraphs (a)
 and (c) of the Commercial Computer Software - Restricted
 Rights clause in FAR 52.227-19.
  
 Gaussian, Inc.
 340 Quinnipiac St., Bldg. 40, Wallingford CT 06492
  
  
 ---------------------------------------------------------------
 Warning -- This program may not be used in any manner that
 competes with the business of Gaussian, Inc. or will provide
 assistance to any competitor of Gaussian, Inc.  The licensee
 of this program is prohibited from giving any competitor of
 Gaussian, Inc. access to this program.  By using this program,
 the user acknowledges that Gaussian, Inc. is engaged in the
 business of creating and licensing software in the field of
 computational chemistry and represents and warrants to the
 licensee that it is not a competitor of Gaussian, Inc. and that
 it will not use this program in any manner prohibited above.
 ---------------------------------------------------------------
  

 Cite this work as:
 Gaussian Development Version, Revision J.30+,
 M. J. Frisch, G. W. Trucks, G. Scalmani, J. R. Cheeseman, X. Li, 
 J. Bloino, B. G. Janesko, A. V. Marenich, J. Zheng, F. Lipparini, 
 A. Jenkins, A. Liu, H. Liu, H. B. Schlegel, G. E. Scuseria, 
 M. A. Robb, V. Barone, G. A. Petersson, H. Nakatsuji, B. Mennucci, 
 C. Adamo, N. Rega, M. Caricato, H. P. Hratchian, J. V. Ortiz, 
 F. Pawlowski, A. F. Izmaylov, H. Hu, C. Liao, J. L. Sonnenberg, 
 D. Williams-Young, F. Ding, R. Gomperts, F. Egidi, J. Goings, 
 B. Peng, A. Petrone, T. Henderson, D. Ranasinghe, V. G. Zakrzewski, 
 J. Gao, G. Zheng, W. Liang, M. Hada, M. Ehara, K. Toyota, R. Fukuda, 
 J. Hasegawa, M. Ishida, T. Nakajima, Y. Honda, O. Kitao, H. Nakai, 
 T. Vreven, K. Throssell, J. A. Montgomery, Jr., J. E. Peralta, 
 F. Ogliaro, M. J. Bearpark, J. J. Heyd, E. N. Brothers, K. N. Kudin, 
 V. N. Staroverov, T. A. Keith, R. Kobayashi, J. Normand, 
 K. Raghavachari, A. P. Rendell, J. C. Burant, S. S. Iyengar, 
 M. Cossi, J. M. Millam, M. Klene, R. Cammi, R. L. Martin, O. Farkas, 
 J. B. Foresman, and D. J. Fox, Gaussian, Inc., Wallingford CT, 2024.
 
 *******************************************
 Gaussian DV:  ES64L-GDVRevJ.30+ 18-Dec-2024
                  3-Sep-2025 
 *******************************************
 %chk=H2O_CAM-B3LYP_6-31+Gdp_q0_m1.chk
 ----------------------------------------------------
 #p CAM-B3LYP/6-31+G(d,p) stable=opt guess=mix scf=qc
 ----------------------------------------------------
 1/37=210000000,38=1,172=1/1;
 2/12=2/2;
 3/5=1,6=6,7=1011,11=2,25=1,30=1,74=-40/1,2,3;
 4/13=-1/1;
 5/5=2,8=3,38=5/8;
 6/7=2,8=2,9=2,10=2,28=1/1;
 8/6=1,10=90,11=11/1;
 9/8=-3,42=1,46=1/14;
 5/5=2,8=3,17=40,38=5/8(-2);
 6/7=2,8=2,9=2,10=2,28=1/1;
 99/5=1,9=1/99;
 Leave Link    1 at Wed Sep  3 17:15:18 2025, MaxMem=           0 cpu:               1.4 elap:               0.1
 (Enter /home/hhratchian/gaussian/gdv-20250101-j30+/gdv/local/l101.exe)
 
  Hrant - IAPOps =                         0
  Hrant - IAPOp1 =                         0
  Hrant - IAPOp2 =                         0
  Hrant - DoAP   =   F
 
 ------------------------------------------------------
 H2O — CAM-B3LYP/6-31+G(d,p) q=0 m=1 [1/3: Stability]
 ------------------------------------------------------
 Symbolic Z-matrix:
 Charge =     0 Multiplicity =     1
 O                     0.        0.        0. 
 H                     0.7586    0.        0.50428 
 H                    -0.7586    0.        0.50428 
 
 ITRead=  0  0  0
 MicOpt= -1 -1 -1
 NAtoms=      3 NQM=        3 NQMF=       0 NMMI=      0 NMMIF=      0
                NMic=       0 NMicF=      0.
                    Isotopes and Nuclear Properties:
 (Nuclear quadrupole moments (NQMom) in fm**2, nuclear magnetic moments (NMagM)
  in nuclear magnetons)

  Atom         1           2           3
 IAtWgt=          16           1           1
 AtmWgt=  15.9949146   1.0078250   1.0078250
 NucSpn=           0           1           1
 AtZEff=   -0.000000   -0.000000   -0.000000
 NQMom=    0.0000000   0.0000000   0.0000000
 NMagM=    0.0000000   2.7928460   2.7928460
 AtZNuc=   8.0000000   1.0000000   1.0000000
 Leave Link  101 at Wed Sep  3 17:15:18 2025, MaxMem= 12348030976 cpu:               2.6 elap:               0.1
 (Enter /home/hhratchian/gaussian/gdv-20250101-j30+/gdv/l202.exe)
                          Input orientation:                          
 ---------------------------------------------------------------------
 Center     Atomic      Atomic             Coordinates (Angstroms)
 Number     Number       Type             X           Y           Z
 ---------------------------------------------------------------------
      1          8           0        0.000000    0.000000    0.000000
      2          1           0        0.758602    0.000000    0.504284
      3          1           0       -0.758602   -0.000000    0.504284
 ---------------------------------------------------------------------
                    Distance matrix (angstroms):
                    1          2          3
     1  O    0.000000
     2  H    0.910922   0.000000
     3  H    0.910922   1.517204   0.000000
 Stoichiometry    H2O
 Framework group  C2V[C2(O),SGV(H2)]
 Deg. of freedom     2
 Full point group                 C2V     NOp   4
 Largest Abelian subgroup         C2V     NOp   4
 Largest concise Abelian subgroup C2      NOp   2
                         Standard orientation:                         
 ---------------------------------------------------------------------
 Center     Atomic      Atomic             Coordinates (Angstroms)
 Number     Number       Type             X           Y           Z
 ---------------------------------------------------------------------
      1          8           0        0.000000    0.000000    0.100857
      2          1           0        0.000000    0.758602   -0.403427
      3          1           0       -0.000000   -0.758602   -0.403427
 ---------------------------------------------------------------------
 Rotational constants (GHZ):        1110.1894251         435.6864908         312.8935057
 Leave Link  202 at Wed Sep  3 17:15:18 2025, MaxMem= 12348030976 cpu:               1.5 elap:               0.0
 (Enter /home/hhratchian/gaussian/gdv-20250101-j30+/gdv/local/l301.exe)
 Standard basis: 6-31+G(d,p) (6D, 7F)
 Ernie: Thresh=  0.10000D-02 Tol=  0.10000D-05 Strict=F.
 There are    14 symmetry adapted cartesian basis functions of A1  symmetry.
 There are     2 symmetry adapted cartesian basis functions of A2  symmetry.
 There are     5 symmetry adapted cartesian basis functions of B1  symmetry.
 There are     8 symmetry adapted cartesian basis functions of B2  symmetry.
 There are    14 symmetry adapted basis functions of A1  symmetry.
 There are     2 symmetry adapted basis functions of A2  symmetry.
 There are     5 symmetry adapted basis functions of B1  symmetry.
 There are     8 symmetry adapted basis functions of B2  symmetry.
    29 basis functions,    46 primitive gaussians,    29 cartesian basis functions
     5 alpha electrons        5 beta electrons
       nuclear repulsion energy         9.6435792538 Hartrees.
 IExCor=   2004019 DFT=T Ex+Corr=CAM-B3LYP ScaHFX=  1.000000
 ScaDFX=  1.000000  1.000000  1.000000  0.810000  1.000000  0.000000
 ScaDFX=  0.000000  0.000000  0.000000  0.000000  0.000000  0.000000
 Grid=UltraFine IRanWt=     -1 IRanGd=            0 ICorTp=0 IEDCtl=  2004
 HFx  wShort=  0.000000 wLong=  0.330000 cFull=  0.190000 cShort=  0.000000 cLong=  0.460000
 DFx  wShort=  0.330000 wLong=  0.000000 cFull=  0.350000 cShort=  0.460000 cLong=  0.000000
 NAtoms=    3 NActive=    3 NUniq=    2 SFac= 2.25D+00 NAtFMM=   60 NAOKFM=F Big=F
 Integral buffers will be    131072 words long.
 Raffenetti 2 integral format.
 Two-electron integral symmetry is turned on.
 Leave Link  301 at Wed Sep  3 17:15:18 2025, MaxMem= 12348030976 cpu:               1.3 elap:               0.1
 (Enter /home/hhratchian/gaussian/gdv-20250101-j30+/gdv/l302.exe)
 NPDir=0 NMtPBC=     1 NCelOv=     1 NCel=       1 NClECP=     1 NCelD=      1
         NCelK=      1 NCelE2=     1 NClLst=     1 CellRange=     0.0.
 One-electron integrals computed using PRISM.
 One-electron integral symmetry used in STVInt
 NBasis=    29 RedAO= T EigKep=  1.62D-02  NBF=    14     2     5     8
 NBsUse=    29 1.00D-06 EigRej= -1.00D+00 NBFU=    14     2     5     8
 Precomputing XC quadrature grid using
 IXCGrd=   9 Grid=UltraFine IRanWt=          -1 IRanGd=           0 AccXCQ= 0.00D+00.
 Generated NRdTot=       0 NPtTot=       69597 NUsed=           0 NTot=          64
 NSgBfM=    29    29    29    29    29 MxSgAt=     3 MxSgA2=     3 SizInc=   0.000
 NMBTot=      708 MaxBatPerAtom=       83 MaxMicBPerAtom=      243 NBfPt=             1706584.
 Leave Link  302 at Wed Sep  3 17:15:18 2025, MaxMem= 12348030976 cpu:               4.7 elap:               0.1
 (Enter /home/hhratchian/gaussian/gdv-20250101-j30+/gdv/l303.exe)
 DipDrv:  MaxL=1.
 Leave Link  303 at Wed Sep  3 17:15:18 2025, MaxMem= 12348030976 cpu:               2.6 elap:               0.1
 (Enter /home/hhratchian/gaussian/gdv-20250101-j30+/gdv/l401.exe)
 ExpMin= 8.45D-02 ExpMax= 5.48D+03 ExpMxC= 8.25D+02 IAcc=3 Grid=UltraFine AccDes= 0.00D+00
 Harris functional with IExCor=10009 and Grid=UltraFine diagonalized for initial guess.
 HarFok:  IExCor=   10009 AccDes= 0.00D+00 Grid=UltraFine IDoV= 1 UseB2=F ITyADJ=14 ICtDFT=  3500011
 FoFCou: FMM=F IPFlag=           0 FMFlag=      100000 FMFlg1=           0
         NFxFlg=           0 DoJE=T BraDBF=F KetDBF=T FulRan=T
         wScrn=  0.000000 ICntrl=       500 IOpCl=  0 I1Cent=   200000004 NGrid=           0
         NMat0=    1 NMatS0=      1 NMatT0=    0 NMatD0=    1 NMtDS0=    0 NMtDT0=    0
 Petite list used in FoFCou.
 Harris En= -76.3881866432080    
 JPrj=0 DoOrth=F DoCkMO=T.
 Mixing orbitals, IMix= 1 IMixAn=  0 NRI=1 NE=    5 Coef=  7.07106781D-01  7.07106781D-01
 Initial guess orbital symmetries:
       Occupied  (A1) (A1) (B2) (A1) (?A)
       Virtual   (?A) (B2) (A1) (B1) (B2) (A1) (B2) (A1) (B2) (B1)
                 (A1) (A1) (A2) (A1) (B1) (B2) (A1) (B2) (B1) (A2)
                 (A1) (A1) (B2) (A1)
 Leave Link  401 at Wed Sep  3 17:15:19 2025, MaxMem= 12348030976 cpu:               7.2 elap:               0.2
 (Enter /home/hhratchian/gaussian/gdv-20250101-j30+/gdv/l508.exe)
 Keep R1 ints in memory in symmetry-blocked form, NReq=48638315.
 FoFCou: FMM=F IPFlag=           0 FMFlag=           0 FMFlg1=           0
         NFxFlg=           0 DoJE=F BraDBF=F KetDBF=F FulRan=T
         wScrn=  0.000000 ICntrl=       600 IOpCl=  0 I1Cent=           0 NGrid=           0
         NMat0=    1 NMatS0=    435 NMatT0=    0 NMatD0=    1 NMtDS0=    0 NMtDT0=    0
 Petite list used in FoFCou.
 Tight linear equation convergence will be used.
 RCAM-B3LYP wavefunction.
 Quadratic Convergence SCF Method.
 Line search only if initial step raises energy.
 Density matrix breaks symmetry, PCut= 1.00D-04
 Density matrix has no symmetry -- integrals replicated.
 Iteration   1 EE= -76.0302005707644                                    Grad=3.065D-01 Max rot=   11.9609 deg.
 Gradient too large for Newton-Raphson -- use scaled steepest descent instead.
 Alpha Gap=     0.155 HL deriv= 1.34D+00
     ILin= 1 X=0.000D+00 Y=-7.603020057076D+01 DE= 0.00D+00 F= -1.13D+00
     ILin= 2 X=3.000D-01 Y=-7.626912416893D+01 DE=-2.39D-01 F= -4.50D-01 OKLS=F
     ILin= 3 X=4.000D-01 Y=-7.630411717930D+01 DE=-2.74D-01 F= -2.57D-01
     ILin= 4 X=6.000D-01 Y=-7.632552447832D+01 DE=-2.95D-01 F=  2.73D-02
     ILin= 5 X=8.000D-01 Y=-7.629253065233D+01 DE=-2.62D-01 F=  3.21D-01
     An  expanding polynomial of degree  5 produced  0.5736
     Minimum is close to point  4 DX= -2.64D-02 DF= -4.70D-04 DXR=  4.60D-02 DFR=  1.59D-03 which will be used.
 Density matrix breaks symmetry, PCut= 1.00D-04
 Density matrix has no symmetry -- integrals replicated.
 Iteration   2 EE= -76.3255244783186     Delta-E=       -0.295323907554 Grad=4.357D-01 Max rot=    6.9635 deg.
 Gradient too large for Newton-Raphson -- use scaled steepest descent instead.
 Alpha Gap=     0.327 HL deriv= 1.39D-02
     ILin= 1 X=0.000D+00 Y=-7.632552447832D+01 DE= 0.00D+00 F= -3.69D-01
     ILin= 2 X=4.000D-01 Y=-7.639837755307D+01 DE=-7.29D-02 F=  1.22D-02 OKLS=T
     Accept linear search using points  1 and  2.
     An  expanding polynomial of degree  2 produced  0.2444
 Density matrix breaks symmetry, PCut= 1.00D-04
 Density matrix has no symmetry -- integrals replicated.
 Iteration   3 EE= -76.3882543327489     Delta-E=       -0.062729854430 Grad=1.618D-01 Max rot=    2.2656 deg.
 Gradient too large for Newton-Raphson -- use scaled steepest descent instead.
 Alpha Gap=     0.426 HL deriv= 1.21D-02
     ILin= 1 X=0.000D+00 Y=-7.638825433275D+01 DE= 0.00D+00 F= -4.91D-02
     ILin= 2 X=6.000D-01 Y=-7.639713083540D+01 DE=-8.88D-03 F=  2.01D-02 OKLS=T
     Accept linear search using points  1 and  2.
     An  expanding polynomial of degree  2 produced  0.3563
 Density matrix breaks symmetry, PCut= 1.00D-04
 Density matrix has no symmetry -- integrals replicated.
 Iteration   4 EE= -76.3985374671745     Delta-E=       -0.010283134426 Grad=4.008D-02 Max rot=    0.6512 deg.
 Gradient too large for Newton-Raphson -- use scaled steepest descent instead.
 Alpha Gap=     0.470 HL deriv= 9.13D-03
     ILin= 1 X=0.000D+00 Y=-7.639853746717D+01 DE= 0.00D+00 F= -2.10D-03
     ILin= 2 X=3.000D-01 Y=-7.639902444451D+01 DE=-4.87D-04 F= -1.14D-03 OKLS=F
     ILin= 3 X=6.000D-01 Y=-7.639922184630D+01 DE=-6.84D-04 F= -1.72D-04
     ILin= 4 X=1.200D+00 Y=-7.639873704199D+01 DE=-2.00D-04 F=  1.79D-03
     An  expanding polynomial of degree  4 produced  0.6530
     Minimum is close to point  3 DX=  5.30D-02 DF= -4.57D-06 DXR=  8.12D-02 DFR=  6.68D-03 which will be used.
 Density matrix breaks symmetry, PCut= 1.00D-04
 Density matrix has no symmetry -- integrals replicated.
 Iteration   5 EE= -76.3992218463033     Delta-E=       -0.000684379129 Grad=2.087D-02 Max rot=    0.3518 deg.
 Gradient too large for Newton-Raphson -- use scaled steepest descent instead.
 Alpha Gap=     0.481 HL deriv= 5.03D-03
     ILin= 1 X=0.000D+00 Y=-7.639922184630D+01 DE= 0.00D+00 F= -3.84D-04
     ILin= 2 X=5.000D-01 Y=-7.639934506562D+01 DE=-1.23D-04 F= -1.09D-04 OKLS=F
     ILin= 3 X=1.000D+00 Y=-7.639933062287D+01 DE=-1.09D-04 F=  1.66D-04
     An  expanding polynomial of degree  3 produced  0.6975
 Density matrix breaks symmetry, PCut= 1.00D-04
 Density matrix has no symmetry -- integrals replicated.
 Iteration   6 EE= -76.3993557976457     Delta-E=       -0.000133951342 Grad=6.782D-03 Max rot=    0.1465 deg.
 QCNR:  CnvC1=1.55D-09 CnvC2=1.55D-08
 LinEq1:  Iter=  0 NonCon=     1 RMS=5.10D-04 Max=2.86D-03 NDo=     1
 AX will form     1 AO Fock derivatives at one time.
 LinEq1:  Iter=  1 NonCon=     1 RMS=3.05D-04 Max=2.18D-03 NDo=     1
 LinEq1:  Iter=  2 NonCon=     1 RMS=4.50D-05 Max=2.42D-04 NDo=     1
 LinEq1:  Iter=  3 NonCon=     1 RMS=3.03D-06 Max=1.73D-05 NDo=     1
 LinEq1:  Iter=  4 NonCon=     1 RMS=5.15D-07 Max=2.65D-06 NDo=     1
 LinEq1:  Iter=  5 NonCon=     1 RMS=9.49D-08 Max=3.55D-07 NDo=     1
 LinEq1:  Iter=  6 NonCon=     1 RMS=6.73D-09 Max=3.65D-08 NDo=     1
 LinEq1:  Iter=  7 NonCon=     0 RMS=6.79D-10 Max=3.49D-09 NDo=     1
 Linear equations converged to 1.549D-09 1.549D-08 after     7 iterations.
 Angle between quadratic step and gradient=  42.52 degrees.
     ILin= 1 X=0.000D+00 Y=-7.639935579765D+01 DE= 0.00D+00 F= -7.40D-05
     ILin= 2 X=1.000D+00 Y=-7.639939266227D+01 DE=-3.69D-05 F=  3.68D-07 OKLS=T
     Accept linear search using points  1 and  2.
     An  expanding polynomial of degree  2 produced  0.9951
     Minimum is close to point  2 DX= -4.93D-03 DF= -9.08D-10 DXR=  4.95D-03 DFR=  2.46D-05 which will be used.
 Iteration   7 EE= -76.3993926622734     Delta-E=       -0.000036864628 Grad=3.098D-05 Max rot=    0.0006 deg.
 QCNR:  CnvC1=3.10D-10 CnvC2=3.10D-09
 LinEq1:  Iter=  0 NonCon=     1 RMS=2.83D-06 Max=1.92D-05 NDo=     1
 LinEq1:  Iter=  1 NonCon=     1 RMS=1.76D-06 Max=1.25D-05 NDo=     1
 LinEq1:  Iter=  2 NonCon=     1 RMS=2.19D-07 Max=1.05D-06 NDo=     1
 LinEq1:  Iter=  3 NonCon=     1 RMS=3.64D-08 Max=2.48D-07 NDo=     1
 LinEq1:  Iter=  4 NonCon=     1 RMS=5.72D-09 Max=2.49D-08 NDo=     1
 LinEq1:  Iter=  5 NonCon=     1 RMS=4.64D-10 Max=1.90D-09 NDo=     1
 LinEq1:  Iter=  6 NonCon=     0 RMS=3.90D-11 Max=1.77D-10 NDo=     1
 Linear equations converged to 3.098D-10 3.098D-09 after     6 iterations.
 Angle between quadratic step and gradient=  42.65 degrees.
     ILin= 1 X=0.000D+00 Y=-7.639939266227D+01 DE= 0.00D+00 F= -2.14D-09
     ILin= 2 X=1.000D+00 Y=-7.639939266334D+01 DE=-1.07D-09
 Iteration   8 EE= -76.3993926633439     Delta-E=       -0.000000001071 Grad=2.063D-09 Max rot=    0.0000 deg.
 Rotation gradient small -- convergence achieved.
 Orbital symmetries in SymMO:
    1=1    2=1    3=4    4=1    5=3    6=1    7=4    8=1    9=3   10=4
   11=1   12=4   13=1   14=4   15=1   16=3   17=1   18=2   19=1   20=3
   21=4   22=1   23=4   24=3   25=2   26=1   27=1   28=4   29=1
 SCF Done:  E(RCAM-B3LYP) =  -76.3993926633     a.u. after    8 cycles
            Convg  =    0.2063D-08                    30 Fock formations.
              S**2 =  0.0000                  -V/T =  2.0064
 Leave Link  508 at Wed Sep  3 17:15:19 2025, MaxMem= 12348030976 cpu:              21.0 elap:               0.5
 (Enter /home/hhratchian/gaussian/gdv-20250101-j30+/gdv/l601.exe)
 Copying SCF densities to generalized density rwf, IOpCl= 0 IROHF=0.
 
 **********************************************************************
 
               Population analysis using the SCF Density.
 
 **********************************************************************
 
 Orbital symmetries:
       Occupied  (A1) (A1) (B2) (A1) (B1)
       Virtual   (A1) (B2) (A1) (B1) (B2) (A1) (B2) (A1) (B2) (A1)
                 (B1) (A1) (A2) (A1) (B1) (B2) (A1) (B2) (B1) (A2)
                 (A1) (A1) (B2) (A1)
 The electronic state is 1-A1.
 Alpha  occ. eigenvalues --      -19.23124      -1.12008      -0.64560      -0.45473      -0.39335
 Alpha virt. eigenvalues --        0.07661       0.15452       0.19243       0.19343       0.28519
 Alpha virt. eigenvalues --        0.29658       1.02382       1.09071       1.13731       1.16275
 Alpha virt. eigenvalues --        1.17950       1.28489       1.56744       1.65622       1.72712
 Alpha virt. eigenvalues --        2.32078       2.37166       2.71976       2.73334       2.81856
 Alpha virt. eigenvalues --        3.20913       3.52091       3.63685       4.07747
          Condensed to atoms (all electrons):
               1          2          3
     1  O    8.102966   0.310270   0.310270
     2  H    0.310270   0.354415  -0.026438
     3  H    0.310270  -0.026438   0.354415
 Mulliken charges:
               1
     1  O   -0.723506
     2  H    0.361753
     3  H    0.361753
 Sum of Mulliken charges=  -0.00000
 Mulliken charges with hydrogens summed into heavy atoms:
               1
     1  O   -0.000000
 Electronic spatial extent (au):  <R**2>=             19.4619
 Charge=             -0.0000 electrons
 Dipole moment (field-independent basis, Debye):
    X=             -0.0000    Y=              0.0000    Z=             -2.0673  Tot=              2.0673
 Quadrupole moment (field-independent basis, Debye-Ang):
   XX=             -7.7788   YY=             -4.2012   ZZ=             -6.7144
   XY=              0.0000   XZ=              0.0000   YZ=             -0.0000
 Traceless Quadrupole moment (field-independent basis, Debye-Ang):
   XX=             -1.5473   YY=              2.0303   ZZ=             -0.4829
   XY=              0.0000   XZ=              0.0000   YZ=             -0.0000
 Octapole moment (field-independent basis, Debye-Ang**2):
  XXX=              0.0000  YYY=             -0.0000  ZZZ=             -1.5689  XYY=             -0.0000
  XXY=             -0.0000  XXZ=             -0.4865  XZZ=              0.0000  YZZ=             -0.0000
  YYZ=             -1.3011  XYZ=             -0.0000
 Hexadecapole moment (field-independent basis, Debye-Ang**3):
 XXXX=             -7.8087 YYYY=             -5.9164 ZZZZ=             -7.8508 XXXY=             -0.0000
 XXXZ=             -0.0000 YYYX=              0.0000 YYYZ=             -0.0000 ZZZX=             -0.0000
 ZZZY=              0.0000 XXYY=             -2.5750 XXZZ=             -2.6411 YYZZ=             -2.1129
 XXYZ=             -0.0000 YYXZ=              0.0000 ZZXY=             -0.0000
 N-N=           9.643579 E-N=        -199.628886  KE=          75.910528
 Symmetry A1   KE=          67.731121
 Symmetry A2   KE=           0.000000
 Symmetry B1   KE=           4.457057
 Symmetry B2   KE=           3.722350
 No NMR shielding tensors so no spin-rotation constants.
 Leave Link  601 at Wed Sep  3 17:15:19 2025, MaxMem= 12348030976 cpu:               3.6 elap:               0.1
 (Enter /home/hhratchian/gaussian/gdv-20250101-j30+/gdv/l801.exe)
 DoSCS=F DFT=T ScalE2(SS,OS)=  1.000000  1.000000
 Range of M.O.s used for correlation:     1    29
 NBasis=    29 NAE=     5 NBE=     5 NFC=     0 NFV=     0
 NROrb=     29 NOA=     5 NOB=     5 NVA=    24 NVB=    24
 Leave Link  801 at Wed Sep  3 17:15:19 2025, MaxMem= 12348030976 cpu:               0.2 elap:               0.0
 (Enter /home/hhratchian/gaussian/gdv-20250101-j30+/gdv/l914.exe)
 RHF ground state
 Doing stability rather than CIS.
 DoSCS=F DFT=T ScalE2(SS,OS)=  1.000000  1.000000
   ScalD2(USS,UOS,TSS,TOS,w)=  1.000000  1.000000  1.000000  1.000000  1.000000
 Keep R1 and R2 ints in memory in symmetry-blocked form, NReq=58362238.
 FoFCou: FMM=F IPFlag=           0 FMFlag=           0 FMFlg1=           0
         NFxFlg=           0 DoJE=F BraDBF=F KetDBF=F FulRan=T
         wScrn=  0.000000 ICntrl=       600 IOpCl=  0 I1Cent=           0 NGrid=           0
         NMat0=    1 NMatS0=    435 NMatT0=    0 NMatD0=    1 NMtDS0=    0 NMtDT0=    0
 Petite list used in FoFCou.
 MDV= 12348030976 DFT=T IDoStb=1 Mixed=T DoRPA=F DoScal=F NonHer=F
 Making orbital integer symmetry assigments:
 Orbital symmetries:
       Occupied  (A1) (A1) (B2) (A1) (B1)
       Virtual   (A1) (B2) (A1) (B1) (B2) (A1) (B2) (A1) (B2) (A1)
                 (B1) (A1) (A2) (A1) (B1) (B2) (A1) (B2) (B1) (A2)
                 (A1) (A1) (B2) (A1)
 The electronic state is 1-A1.
    24 initial guesses have been made.
 Convergence on wavefunction:    0.001000000000000
 Davidson Disk Diagonalization:  ConvIn= 1.00D-03 SkipCon=T Conv= 1.00D-03.
 Max sub-space:   480 initial roots:    24 roots to seek:     1 dimension of matrix:          240
 Iteration     1 Dimension    24 NMult     0 NNew     24
 CISAX will form    24 AO SS matrices at one time.
 NMat=    24 NSing=    12 JSym2X=-1.
 New state      1 was old state      2
 Excitation Energies [eV] at current iteration:
 Root      1 :     7.590579379804089
 Root      2 :     8.751126077638146
 Root      3 :     9.493882200527867
 Root      4 :    10.139041204540977
 Root      5 :    10.483473826266401
 Root      6 :    10.612088400690205
 Root      7 :    10.753796129995335
 Root      8 :    11.314147717551400
 Root      9 :    11.711037359566237
 Root     10 :    11.856939368702088
 Root     11 :    12.388910274873863
 Root     12 :    12.602108736228002
 Root     13 :    12.686195906928784
 Root     14 :    13.018260592839200
 Root     15 :    13.272645693440419
 Root     16 :    13.406502285570410
 Root     17 :    13.611682949673453
 Root     18 :    13.667061872778905
 Root     19 :    14.161457555384413
 Root     20 :    14.777834844758665
 Root     21 :    14.904850856379770
 Root     22 :    15.585755590492713
 Root     23 :    17.186541689301489
 Root     24 :    19.136564920392853
 Iteration     2 Dimension    48 NMult    24 NNew     24
 CISAX will form    24 AO SS matrices at one time.
 NMat=    24 NSing=    12 JSym2X=-1.
 Root      1 not converged, maximum delta is    0.034479177761706
 Excitation Energies [eV] at current iteration:
 Root      1 :     7.426898990009418   Change is   -0.163680389794671
 Root      2 :     8.713139115245584   Change is   -0.037986962392561
 Root      3 :     9.128027823563631   Change is   -0.365854376964236
 Root      4 :     9.957504476130818   Change is   -0.181536728410158
 Root      5 :    10.388762019889159   Change is   -0.365034110106177
 Root      6 :    10.400949422715893   Change is   -0.082524403550508
 Root      7 :    10.580130835413696   Change is   -0.031957565276510
 Root      8 :    11.159648828641133   Change is   -0.154498888910266
 Root      9 :    11.388655514057257   Change is   -0.322381845508980
 Root     10 :    11.814334170284839   Change is   -0.042605198417249
 Root     11 :    12.278751672326694   Change is   -0.323357063901308
 Root     12 :    12.335105902312685   Change is   -0.053804372561176
 Root     13 :    12.379156772231466   Change is   -0.307039134697318
 Root     14 :    12.913560809361304   Change is   -0.104699783477897
 Root     15 :    13.136943119855610   Change is   -0.135702573584807
 Root     16 :    13.375592519636326   Change is   -0.030909765934083
 Root     17 :    13.489794551640484   Change is   -0.121888398032970
 Root     18 :    13.585853056809173   Change is   -0.575604498575240
 Root     19 :    13.626452185164439   Change is   -0.040609687614466
 Root     20 :    14.531244669152958   Change is   -0.246590175605706
 Root     21 :    14.605678977150953   Change is   -0.299171879228818
 Root     22 :    14.729517057321107   Change is   -4.407047863071745
 Root     23 :    15.499689920920561   Change is   -0.086065669572152
 Root     24 :    16.410071105721741   Change is   -0.776470583579749
 Iteration     3 Dimension    54 NMult    48 NNew      6
 CISAX will form     6 AO SS matrices at one time.
 NMat=     6 NSing=     3 JSym2X=-1.
 Root      1 has converged.
 Excitation Energies [eV] at current iteration:
 Root      1 :     7.426691212300000   Change is   -0.000207777709419
 Root      2 :     8.713058431526008   Change is   -0.000080683719576
 Root      3 :     9.098910055697852   Change is   -0.029117767865779
 Root      4 :     9.955498059822336   Change is   -0.002006416308483
 Root      5 :    10.395712888278899   Change is   -0.005236534436994
 Root      6 :    10.579872138048527   Change is   -0.000258697365168
 Convergence achieved on expansion vectors.
 1PDM for each excited state written to RWF  633
 Ground to excited state transition densities written to RWF  633

 ***********************************************************************
 Stability analysis using <AA,BB:AA,BB> singles matrix:
 ***********************************************************************

 Eigenvectors of the stability matrix:
 
 Eigenvector   1:      Triplet-B1   Eigenvalue= 0.2729259  <S**2>=2.000
       5 ->  6         0.69492
       5 -> 11        -0.11320
 The wavefunction is stable under the perturbations considered.
 Leave Link  914 at Wed Sep  3 17:15:20 2025, MaxMem= 12348030976 cpu:              17.8 elap:               0.4
 (Enter /home/hhratchian/gaussian/gdv-20250101-j30+/gdv/l508.exe)
 The wavefunction is already stable.
 Leave Link  508 at Wed Sep  3 17:15:20 2025, MaxMem= 12348030976 cpu:               1.3 elap:               0.0
 (Enter /home/hhratchian/gaussian/gdv-20250101-j30+/gdv/l601.exe)
 Copying SCF densities to generalized density rwf, IOpCl= 0 IROHF=0.
 
 **********************************************************************
 
               Population analysis using the SCF Density.
 
 **********************************************************************
 
 Orbital symmetries:
       Occupied  (A1) (A1) (B2) (A1) (B1)
       Virtual   (A1) (B2) (A1) (B1) (B2) (A1) (B2) (A1) (B2) (A1)
                 (B1) (A1) (A2) (A1) (B1) (B2) (A1) (B2) (B1) (A2)
                 (A1) (A1) (B2) (A1)
 The electronic state is 1-A1.
 Alpha  occ. eigenvalues --      -19.23124      -1.12008      -0.64560      -0.45473      -0.39335
 Alpha virt. eigenvalues --        0.07661       0.15452       0.19243       0.19343       0.28519
 Alpha virt. eigenvalues --        0.29658       1.02382       1.09071       1.13731       1.16275
 Alpha virt. eigenvalues --        1.17950       1.28489       1.56744       1.65622       1.72712
 Alpha virt. eigenvalues --        2.32078       2.37166       2.71976       2.73334       2.81856
 Alpha virt. eigenvalues --        3.20913       3.52091       3.63685       4.07747
          Condensed to atoms (all electrons):
               1          2          3
     1  O    8.102966   0.310270   0.310270
     2  H    0.310270   0.354415  -0.026438
     3  H    0.310270  -0.026438   0.354415
 Mulliken charges:
               1
     1  O   -0.723506
     2  H    0.361753
     3  H    0.361753
 Sum of Mulliken charges=  -0.00000
 Mulliken charges with hydrogens summed into heavy atoms:
               1
     1  O   -0.000000
 Electronic spatial extent (au):  <R**2>=             19.4619
 Charge=             -0.0000 electrons
 Dipole moment (field-independent basis, Debye):
    X=             -0.0000    Y=              0.0000    Z=             -2.0673  Tot=              2.0673
 Quadrupole moment (field-independent basis, Debye-Ang):
   XX=             -7.7788   YY=             -4.2012   ZZ=             -6.7144
   XY=              0.0000   XZ=              0.0000   YZ=             -0.0000
 Traceless Quadrupole moment (field-independent basis, Debye-Ang):
   XX=             -1.5473   YY=              2.0303   ZZ=             -0.4829
   XY=              0.0000   XZ=              0.0000   YZ=             -0.0000
 Octapole moment (field-independent basis, Debye-Ang**2):
  XXX=              0.0000  YYY=             -0.0000  ZZZ=             -1.5689  XYY=             -0.0000
  XXY=             -0.0000  XXZ=             -0.4865  XZZ=              0.0000  YZZ=             -0.0000
  YYZ=             -1.3011  XYZ=             -0.0000
 Hexadecapole moment (field-independent basis, Debye-Ang**3):
 XXXX=             -7.8087 YYYY=             -5.9164 ZZZZ=             -7.8508 XXXY=             -0.0000
 XXXZ=             -0.0000 YYYX=              0.0000 YYYZ=             -0.0000 ZZZX=             -0.0000
 ZZZY=              0.0000 XXYY=             -2.5750 XXZZ=             -2.6411 YYZZ=             -2.1129
 XXYZ=             -0.0000 YYXZ=              0.0000 ZZXY=             -0.0000
 N-N=           9.643579 E-N=        -199.628886  KE=          75.910528
 Symmetry A1   KE=          67.731121
 Symmetry A2   KE=           0.000000
 Symmetry B1   KE=           4.457057
 Symmetry B2   KE=           3.722350
 No NMR shielding tensors so no spin-rotation constants.
 Leave Link  601 at Wed Sep  3 17:15:20 2025, MaxMem= 12348030976 cpu:               6.2 elap:               0.2
 (Enter /home/hhratchian/gaussian/gdv-20250101-j30+/gdv/local/l9999.exe)
 Unable to Open any file for archive entry.
 1\1\GINC-HMNODE009\Stability\RCAM-B3LYP\6-31+G(d,p)\H2O1\AABOUTAKA\03-
 Sep-2025\0\\#p CAM-B3LYP/6-31+G(d,p) stable=opt guess=mix scf=qc\\H2O 
 — CAM-B3LYP/6-31+G(d,p) q=0 m=1 [1/3: Stability]\\0,1\O,0,0.,0.,0.\H
 ,0,0.758602,0.,0.504284\H,0,-0.758602,0.,0.504284\\Version=ES64L-GDVRe
 vJ.30+\State=1-A1\HF=-76.3993927\RMSD=1.331e-10\Dipole=0.,0.,0.8133194
 \Quadrupole=1.5094491,-1.1504006,-0.3590485,0.,0.,0.\PG=C02V [C2(O1),S
 GV(H2)]\\@
 The archive entry for this job was punched.


 THERE ARE PEOPLE SO ADDICTED TO EXAGERATING THEY
 CAN'T TELL THE TRUTH WITHOUT LYING. -- FORTUNE COOKIE
 Job cpu time:       0 days  0 hours  1 minutes 13.8 seconds.
 Elapsed time:       0 days  0 hours  0 minutes  2.0 seconds.
 File lengths (MBytes):  RWF=     22 Int=      0 D2E=      0 Chk=      2 Scr=      2
 Normal termination of Gaussian DV at Wed Sep  3 17:15:20 2025.
 Initial command:
 /home/hhratchian/gaussian/gdv-20250101-j30+/gdv/local/l1.exe "/scratch/aaboutaka/1590316/Gau-3241294.inp" -scrdir="/scratch/aaboutaka/1590316/"
 Default is to use a total of  56 processors:
                               56 via shared-memory
                                1 via Linda
 Entering Link 1 = /home/hhratchian/gaussian/gdv-20250101-j30+/gdv/local/l1.exe PID=   3242069.
  
 Copyright (c) 1988-2024, Gaussian, Inc.  All Rights Reserved.
  
 This is the private, development version of
 the Gaussian(R) DV system of programs. It is based on
 the Gaussian(R) 16 system (copyright 2016, Gaussian, Inc.),
 the Gaussian(R) 09 system (copyright 2009, Gaussian, Inc.),
 the Gaussian(R) 03 system (copyright 2003, Gaussian, Inc.),
 the Gaussian(R) 98 system (copyright 1998, Gaussian, Inc.),
 the Gaussian(R) 94 system (copyright 1995, Gaussian, Inc.),
 the Gaussian 92(TM) system (copyright 1992, Gaussian, Inc.),
 the Gaussian 90(TM) system (copyright 1990, Gaussian, Inc.),
 the Gaussian 88(TM) system (copyright 1988, Gaussian, Inc.),
 the Gaussian 86(TM) system (copyright 1986, Carnegie Mellon
 University), and the Gaussian 82(TM) system (copyright 1983,
 Carnegie Mellon University). Gaussian is a federally registered
 trademark of Gaussian, Inc.
  
 This software contains proprietary and confidential information,
 including trade secrets, belonging to Gaussian, Inc.
  
 This software is provided under written license and may be
 used, copied, transmitted, or stored only in accord with that
 written license.
  
 The following legend is applicable only to US Government
 contracts under FAR:
  
                    RESTRICTED RIGHTS LEGEND
  
 Use, reproduction and disclosure by the US Government is
 subject to restrictions as set forth in subparagraphs (a)
 and (c) of the Commercial Computer Software - Restricted
 Rights clause in FAR 52.227-19.
  
 Gaussian, Inc.
 340 Quinnipiac St., Bldg. 40, Wallingford CT 06492
  
  
 ---------------------------------------------------------------
 Warning -- This program may not be used in any manner that
 competes with the business of Gaussian, Inc. or will provide
 assistance to any competitor of Gaussian, Inc.  The licensee
 of this program is prohibited from giving any competitor of
 Gaussian, Inc. access to this program.  By using this program,
 the user acknowledges that Gaussian, Inc. is engaged in the
 business of creating and licensing software in the field of
 computational chemistry and represents and warrants to the
 licensee that it is not a competitor of Gaussian, Inc. and that
 it will not use this program in any manner prohibited above.
 ---------------------------------------------------------------
  

 Cite this work as:
 Gaussian Development Version, Revision J.30+,
 M. J. Frisch, G. W. Trucks, G. Scalmani, J. R. Cheeseman, X. Li, 
 J. Bloino, B. G. Janesko, A. V. Marenich, J. Zheng, F. Lipparini, 
 A. Jenkins, A. Liu, H. Liu, H. B. Schlegel, G. E. Scuseria, 
 M. A. Robb, V. Barone, G. A. Petersson, H. Nakatsuji, B. Mennucci, 
 C. Adamo, N. Rega, M. Caricato, H. P. Hratchian, J. V. Ortiz, 
 F. Pawlowski, A. F. Izmaylov, H. Hu, C. Liao, J. L. Sonnenberg, 
 D. Williams-Young, F. Ding, R. Gomperts, F. Egidi, J. Goings, 
 B. Peng, A. Petrone, T. Henderson, D. Ranasinghe, V. G. Zakrzewski, 
 J. Gao, G. Zheng, W. Liang, M. Hada, M. Ehara, K. Toyota, R. Fukuda, 
 J. Hasegawa, M. Ishida, T. Nakajima, Y. Honda, O. Kitao, H. Nakai, 
 T. Vreven, K. Throssell, J. A. Montgomery, Jr., J. E. Peralta, 
 F. Ogliaro, M. J. Bearpark, J. J. Heyd, E. N. Brothers, K. N. Kudin, 
 V. N. Staroverov, T. A. Keith, R. Kobayashi, J. Normand, 
 K. Raghavachari, A. P. Rendell, J. C. Burant, S. S. Iyengar, 
 M. Cossi, J. M. Millam, M. Klene, R. Cammi, R. L. Martin, O. Farkas, 
 J. B. Foresman, and D. J. Fox, Gaussian, Inc., Wallingford CT, 2024.
 
 *******************************************
 Gaussian DV:  ES64L-GDVRevJ.30+ 18-Dec-2024
                  3-Sep-2025 
 *******************************************
 %chk=H2O_CAM-B3LYP_6-31+Gdp_q0_m1.chk
 ----------------------------------------------------------------------
 #p CAM-B3LYP guess=read chkbasis geom=allcheck Opt Freq SCF=(fermi, no
 varacc) int=superfinegrid
 ----------------------------------------------------------------------
 1/18=20,19=15,26=5,29=7,38=1/1,3;
 2/9=110,12=2/2;
 3/5=7,6=2,11=2,14=-4,25=1,30=1,67=1,71=1,74=-40,75=-7,116=-2/1,2,3;
 4/5=1/1;
 5/5=2,22=13,38=6/2;
 6/7=2,8=2,9=2,10=2,28=1/1;
 7//1,2,3,16;
 1/18=20,19=15,26=5/3(2);
 2/9=110/2;
 99//99;
 2/9=110/2;
 3/5=7,6=1,11=2,14=-2,25=1,30=1,71=1,74=-40,75=-7,82=7,187=7/1,2,3;
 4/5=5,16=3,69=1/1;
 5/5=2,22=13,38=1/2;
 7//1,2,3,16;
 1/18=20,19=15,26=5/3(-5);
 2/9=110/2;
 6/7=2,8=2,9=2,10=2,19=2,28=1/1;
 99/9=1/99;
 Leave Link    1 at Wed Sep  3 17:15:20 2025, MaxMem=           0 cpu:               1.3 elap:               0.1
 (Enter /home/hhratchian/gaussian/gdv-20250101-j30+/gdv/local/l101.exe)
 
  Hrant - IAPOps =                         0
  Hrant - IAPOp1 =                         0
  Hrant - IAPOp2 =                         0
  Hrant - DoAP   =   F
 
 Structure from the checkpoint file:  "H2O_CAM-B3LYP_6-31+Gdp_q0_m1.chk"
 ------------------------------------------------------
 H2O — CAM-B3LYP/6-31+G(d,p) q=0 m=1 [1/3: Stability]
 ------------------------------------------------------
 Charge =     0 Multiplicity =     1
 Z-Matrix found in chk file.
 O,0,0.,0.,0.
 H,0,0.758602,0.,0.504284
 H,0,-0.758602,0.,0.504284
 
 Recover connectivity data from disk.
 Initializing the GIC definitions file.
 ITRead=  0  0  0
 MicOpt= -1 -1 -1
 NAtoms=      3 NQM=        3 NQMF=       0 NMMI=      0 NMMIF=      0
                NMic=       0 NMicF=      0.
                    Isotopes and Nuclear Properties:
 (Nuclear quadrupole moments (NQMom) in fm**2, nuclear magnetic moments (NMagM)
  in nuclear magnetons)

  Atom         1           2           3
 IAtWgt=          16           1           1
 AtmWgt=  15.9949146   1.0078250   1.0078250
 NucSpn=           0           1           1
 AtZEff=    5.600000    1.000000    1.000000
 NQMom=    0.0000000   0.0000000   0.0000000
 NMagM=    0.0000000   2.7928460   2.7928460
 AtZNuc=   8.0000000   1.0000000   1.0000000
 Leave Link  101 at Wed Sep  3 17:15:23 2025, MaxMem= 12348030976 cpu:               3.7 elap:               3.4
 (Enter /home/hhratchian/gaussian/gdv-20250101-j30+/gdv/l103.exe)

 GradGradGradGradGradGradGradGradGradGradGradGradGradGradGradGradGradGrad
 Berny optimization.
 Initialization pass.
                           ----------------------------
                           !    Initial Parameters    !
                           ! (Angstroms and Degrees)  !
 --------------------------                            --------------------------
 ! Name  Definition              Value          Derivative Info.                !
 --------------------------------------------------------------------------------
 ! R1    R(1,2)                  0.9109         estimate D2E/DX2                !
 ! R2    R(1,3)                  0.9109         estimate D2E/DX2                !
 ! A1    A(2,1,3)              112.7717         estimate D2E/DX2                !
 --------------------------------------------------------------------------------
 Trust Radius=3.00D-01 FncErr=1.00D-07 GrdErr=1.00D-07 EigMax=2.50D+02 EigMin=1.00D-04
 Number of steps in this run=     20 maximum allowed number of steps=    100.
 GradGradGradGradGradGradGradGradGradGradGradGradGradGradGradGradGradGrad

 Leave Link  103 at Wed Sep  3 17:15:24 2025, MaxMem= 12348030976 cpu:               0.1 elap:               0.0
 (Enter /home/hhratchian/gaussian/gdv-20250101-j30+/gdv/l202.exe)
                          Input orientation:                          
 ---------------------------------------------------------------------
 Center     Atomic      Atomic             Coordinates (Angstroms)
 Number     Number       Type             X           Y           Z
 ---------------------------------------------------------------------
      1          8           0       -0.000000   -0.000000    0.000000
      2          1           0        0.758602    0.000000    0.504284
      3          1           0       -0.758602   -0.000000    0.504284
 ---------------------------------------------------------------------
                    Distance matrix (angstroms):
                    1          2          3
     1  O    0.000000
     2  H    0.910922   0.000000
     3  H    0.910922   1.517204   0.000000
 Stoichiometry    H2O
 Framework group  C2V[C2(O),SGV(H2)]
 Deg. of freedom     2
 Full point group                 C2V     NOp   4
 RotChk:  IX=0 Diff= 7.38D-16
 Largest Abelian subgroup         C2V     NOp   4
 Largest concise Abelian subgroup C2      NOp   2
                         Standard orientation:                         
 ---------------------------------------------------------------------
 Center     Atomic      Atomic             Coordinates (Angstroms)
 Number     Number       Type             X           Y           Z
 ---------------------------------------------------------------------
      1          8           0       -0.000000    0.000000    0.100857
      2          1           0        0.000000    0.758602   -0.403427
      3          1           0       -0.000000   -0.758602   -0.403427
 ---------------------------------------------------------------------
 Rotational constants (GHZ):        1110.1894251         435.6864908         312.8935057
 Leave Link  202 at Wed Sep  3 17:15:24 2025, MaxMem= 12348030976 cpu:               1.5 elap:               0.0
 (Enter /home/hhratchian/gaussian/gdv-20250101-j30+/gdv/local/l301.exe)
 Basis read from chk: "H2O_CAM-B3LYP_6-31+Gdp_q0_m1.chk" (6D, 7F)
 No pseudopotential information found on chk file.
 There are    14 symmetry adapted cartesian basis functions of A1  symmetry.
 There are     2 symmetry adapted cartesian basis functions of A2  symmetry.
 There are     5 symmetry adapted cartesian basis functions of B1  symmetry.
 There are     8 symmetry adapted cartesian basis functions of B2  symmetry.
 There are    14 symmetry adapted basis functions of A1  symmetry.
 There are     2 symmetry adapted basis functions of A2  symmetry.
 There are     5 symmetry adapted basis functions of B1  symmetry.
 There are     8 symmetry adapted basis functions of B2  symmetry.
    29 basis functions,    46 primitive gaussians,    29 cartesian basis functions
     5 alpha electrons        5 beta electrons
       nuclear repulsion energy         9.6435792538 Hartrees.
 IExCor=   2004019 DFT=T Ex+Corr=CAM-B3LYP ScaHFX=  1.000000
 ScaDFX=  1.000000  1.000000  1.000000  0.810000  1.000000  0.000000
 ScaDFX=  0.000000  0.000000  0.000000  0.000000  0.000000  0.000000
 Grid=SuperFine IRanWt=     -1 IRanGd=            0 ICorTp=0 IEDCtl=  2004
 HFx  wShort=  0.000000 wLong=  0.330000 cFull=  0.190000 cShort=  0.000000 cLong=  0.460000
 DFx  wShort=  0.330000 wLong=  0.000000 cFull=  0.350000 cShort=  0.460000 cLong=  0.000000
 NAtoms=    3 NActive=    3 NUniq=    2 SFac= 2.25D+00 NAtFMM=   60 NAOKFM=F Big=F
 Integral buffers will be    131072 words long.
 Raffenetti 2 integral format.
 Two-electron integral symmetry is turned on.
 No density basis found on file 200724.
 Leave Link  301 at Wed Sep  3 17:15:24 2025, MaxMem= 12348030976 cpu:               1.3 elap:               0.1
 (Enter /home/hhratchian/gaussian/gdv-20250101-j30+/gdv/l302.exe)
 NPDir=0 NMtPBC=     1 NCelOv=     1 NCel=       1 NClECP=     1 NCelD=      1
         NCelK=      1 NCelE2=     1 NClLst=     1 CellRange=     0.0.
 One-electron integrals computed using PRISM.
 One-electron integral symmetry used in STVInt
 NBasis=    29 RedAO= T EigKep=  1.62D-02  NBF=    14     2     5     8
 NBsUse=    29 1.00D-06 EigRej= -1.00D+00 NBFU=    14     2     5     8
 Precomputing XC quadrature grid using
 IXCGrd=   9 Grid=SuperFine IRanWt=          -1 IRanGd=           0 AccXCQ= 0.00D+00.
 Generated NRdTot=       0 NPtTot=      190687 NUsed=           0 NTot=          64
 NSgBfM=    29    29    29    29    29 MxSgAt=     3 MxSgA2=     3 SizInc=   0.000
 NMBTot=     1456 MaxBatPerAtom=      126 MaxMicBPerAtom=      488 NBfPt=             4637482.
 Leave Link  302 at Wed Sep  3 17:15:24 2025, MaxMem= 12348030976 cpu:               6.2 elap:               0.2
 (Enter /home/hhratchian/gaussian/gdv-20250101-j30+/gdv/l303.exe)
 DipDrv:  MaxL=1.
 Leave Link  303 at Wed Sep  3 17:15:24 2025, MaxMem= 12348030976 cpu:               1.4 elap:               0.1
 (Enter /home/hhratchian/gaussian/gdv-20250101-j30+/gdv/l401.exe)
 Initial guess from the checkpoint file:  "H2O_CAM-B3LYP_6-31+Gdp_q0_m1.chk"
 B after Tr=     0.000000   -0.000000    0.000000
         Rot=    1.000000   -0.000000   -0.000000   -0.000000 Ang=   0.00 deg.
 AO Guess basis will be translated and rotated to current coordinates.
 JPrj=2 DoOrth=T DoCkMO=T.
 Initial guess orbital symmetries:
       Occupied  (A1) (A1) (B2) (A1) (B1)
       Virtual   (A1) (B2) (A1) (B1) (B2) (A1) (B2) (A1) (B2) (A1)
                 (B1) (A1) (A2) (A1) (B1) (B2) (A1) (B2) (B1) (A2)
                 (A1) (A1) (B2) (A1)
 The electronic state of the initial guess is 1-A1.
 Leave Link  401 at Wed Sep  3 17:15:24 2025, MaxMem= 12348030976 cpu:               2.7 elap:               0.1
 (Enter /home/hhratchian/gaussian/gdv-20250101-j30+/gdv/local/l502.exe)
 Keep R1 ints in memory in symmetry-blocked form, NReq=48859339.
 FoFCou: FMM=F IPFlag=           0 FMFlag=           0 FMFlg1=           0
         NFxFlg=           0 DoJE=F BraDBF=F KetDBF=F FulRan=T
         wScrn=  0.000000 ICntrl=       600 IOpCl=  0 I1Cent=           0 NGrid=           0
         NMat0=    1 NMatS0=    435 NMatT0=    0 NMatD0=    1 NMtDS0=    0 NMtDT0=    0
 Petite list used in FoFCou.
 Closed shell SCF:
 Using DIIS extrapolation, IDIIS=    10.
 NGot= 12348030976 LenX= 12347998860 LenY= 12347997578
 Requested convergence on RMS density matrix=1.00D-08 within 128 cycles.
 Requested convergence on MAX density matrix=1.00D-06.
 Requested convergence on             energy=1.00D-06.
 Level shift goal  0.100 maximum shift  0.100.
 No special actions if energy rises.
 Dynamic level shift is on during FON iterations.
 
  Hrant - CycOpn.
 

 Cycle   1  Pass 1  IDiag  1:
 E= -76.3993927333713    
 DIIS: error= 1.37D-08 at cycle   1 NSaved=   1.
 NSaved= 1 IEnMin= 1 EnMin= -76.3993927333713     IErMin= 1 ErrMin= 1.37D-08
 ErrMax= 1.37D-08  0.00D+00 EMaxC= 1.00D+00 BMatC= 1.67D-15 BMatP= 1.67D-15
 Rises=F IDIUse=1 WtCom= 1.00D+00 WtEn= 0.00D+00
 Coeff-Com:  0.100D+01
 Coeff:      0.100D+01
 Gap=     0.470 Goal=     0.100 Shift=    0.000
 RMSDP=1.89D-09 MaxDP=2.17D-08              OVMax= 1.56D-08

 SCF Done:  E(RCAM-B3LYP) =  -76.3993927334     A.U. after    1 cycles
            NFock=  1  Conv=0.19D-08     -V/T= 2.0064
 KE=          75.910528 PE=        -199.628886 EE=          37.675386
 Leave Link  502 at Wed Sep  3 17:15:24 2025, MaxMem= 12348030976 cpu:               9.2 elap:               0.2
 (Enter /home/hhratchian/gaussian/gdv-20250101-j30+/gdv/l601.exe)
 Copying SCF densities to generalized density rwf, IOpCl= 0 IROHF=0.
 
 **********************************************************************
 
               Population analysis using the SCF Density.
 
 **********************************************************************
 
 Orbital symmetries:
       Occupied  (A1) (A1) (B2) (A1) (B1)
       Virtual   (A1) (B2) (A1) (B1) (B2) (A1) (B2) (A1) (B2) (A1)
                 (B1) (A1) (A2) (A1) (B1) (B2) (A1) (B2) (B1) (A2)
                 (A1) (A1) (B2) (A1)
 The electronic state is 1-A1.
 Alpha  occ. eigenvalues --      -19.23124      -1.12008      -0.64560      -0.45473      -0.39335
 Alpha virt. eigenvalues --        0.07661       0.15452       0.19243       0.19343       0.28519
 Alpha virt. eigenvalues --        0.29658       1.02382       1.09071       1.13731       1.16275
 Alpha virt. eigenvalues --        1.17950       1.28489       1.56744       1.65622       1.72712
 Alpha virt. eigenvalues --        2.32078       2.37166       2.71976       2.73334       2.81856
 Alpha virt. eigenvalues --        3.20913       3.52091       3.63685       4.07747
          Condensed to atoms (all electrons):
               1          2          3
     1  O    8.102966   0.310270   0.310270
     2  H    0.310270   0.354415  -0.026438
     3  H    0.310270  -0.026438   0.354415
 Mulliken charges:
               1
     1  O   -0.723506
     2  H    0.361753
     3  H    0.361753
 Sum of Mulliken charges=  -0.00000
 Mulliken charges with hydrogens summed into heavy atoms:
               1
     1  O   -0.000000
 Electronic spatial extent (au):  <R**2>=             19.4619
 Charge=             -0.0000 electrons
 Dipole moment (field-independent basis, Debye):
    X=             -0.0000    Y=              0.0000    Z=             -2.0673  Tot=              2.0673
 Quadrupole moment (field-independent basis, Debye-Ang):
   XX=             -7.7788   YY=             -4.2012   ZZ=             -6.7144
   XY=              0.0000   XZ=              0.0000   YZ=             -0.0000
 Traceless Quadrupole moment (field-independent basis, Debye-Ang):
   XX=             -1.5473   YY=              2.0303   ZZ=             -0.4829
   XY=              0.0000   XZ=              0.0000   YZ=             -0.0000
 Octapole moment (field-independent basis, Debye-Ang**2):
  XXX=              0.0000  YYY=              0.0000  ZZZ=             -1.5689  XYY=             -0.0000
  XXY=             -0.0000  XXZ=             -0.4865  XZZ=              0.0000  YZZ=             -0.0000
  YYZ=             -1.3011  XYZ=             -0.0000
 Hexadecapole moment (field-independent basis, Debye-Ang**3):
 XXXX=             -7.8087 YYYY=             -5.9164 ZZZZ=             -7.8508 XXXY=             -0.0000
 XXXZ=             -0.0000 YYYX=              0.0000 YYYZ=             -0.0000 ZZZX=             -0.0000
 ZZZY=              0.0000 XXYY=             -2.5750 XXZZ=             -2.6411 YYZZ=             -2.1129
 XXYZ=             -0.0000 YYXZ=              0.0000 ZZXY=             -0.0000
 N-N=           9.643579 E-N=        -199.628886  KE=          75.910528
 Symmetry A1   KE=          67.731121
 Symmetry A2   KE=           0.000000
 Symmetry B1   KE=           4.457057
 Symmetry B2   KE=           3.722350
 No NMR shielding tensors so no spin-rotation constants.
 Leave Link  601 at Wed Sep  3 17:15:24 2025, MaxMem= 12348030976 cpu:               4.9 elap:               0.1
 (Enter /home/hhratchian/gaussian/gdv-20250101-j30+/gdv/l701.exe)
 ... and contract with generalized density number  0.
 Compute integral first derivatives.
 Leave Link  701 at Wed Sep  3 17:15:25 2025, MaxMem= 12348030976 cpu:               5.1 elap:               0.1
 (Enter /home/hhratchian/gaussian/gdv-20250101-j30+/gdv/l702.exe)
 L702 exits ... SP integral derivatives will be done elsewhere.
 Leave Link  702 at Wed Sep  3 17:15:25 2025, MaxMem= 12348030976 cpu:               0.1 elap:               0.0
 (Enter /home/hhratchian/gaussian/gdv-20250101-j30+/gdv/l703.exe)
 Integral derivatives from FoFJK, PRISM(SPDF).
 Compute integral first derivatives, UseDBF=F ICtDFT=           0.
 Calling FoFJK, ICntrl=      2127 FMM=F ISym2X=1 I1Cent= 0 IOpClX= 0 NMat=1 NMatS=1 NMatT=0.
 FoFJK:  IHMeth= 1 ICntrl=    2127 DoSepK=T KAlg= 0 I1Cent=           0 FoldK=F
 IRaf=         1 NMat=       1 IRICut=       1 DoRegI=T DoRafI=F ISym2E= 1 IDoP0=0 IntGTp=1.
 FoFCou: FMM=F IPFlag=           0 FMFlag=      100000 FMFlg1=         800
         NFxFlg=           0 DoJE=F BraDBF=F KetDBF=F FulRan=T
         wScrn=  0.000000 ICntrl=      2527 IOpCl=  0 I1Cent=           0 NGrid=           0
         NMat0=    1 NMatS0=      1 NMatT0=    0 NMatD0=    1 NMtDS0=    0 NMtDT0=    0
 Petite list used in FoFCou.
 Leave Link  703 at Wed Sep  3 17:15:25 2025, MaxMem= 12348030976 cpu:              14.8 elap:               0.4
 (Enter /home/hhratchian/gaussian/gdv-20250101-j30+/gdv/l716.exe)
 Dipole        =-5.50237717D-17 0.00000000D+00-8.13319316D-01
 ***** Axes restored to original set *****
 -------------------------------------------------------------------
 Center     Atomic                   Forces (Hartrees/Bohr)
 Number     Number              X              Y              Z
 -------------------------------------------------------------------
      1        8           0.000000000   -0.000000000   -0.078299092
      2        1           0.047553216    0.000000000    0.039149546
      3        1          -0.047553216    0.000000000    0.039149546
 -------------------------------------------------------------------
 Cartesian Forces:  Max     0.078299092 RMS     0.039042339
 Leave Link  716 at Wed Sep  3 17:15:25 2025, MaxMem= 12348030976 cpu:               1.3 elap:               0.1
 (Enter /home/hhratchian/gaussian/gdv-20250101-j30+/gdv/l103.exe)

 GradGradGradGradGradGradGradGradGradGradGradGradGradGradGradGradGradGrad
 Berny optimization.
 FormGI is forming the generalized inverse of G from B-inverse, IUseBI=4.
 NTrRot=    -1 NTRed=     3 NAtoms=     3 NSkip=     0 NRank=     3 IsLin=F EigSml=8.5452D-01
 Internal  Forces:  Max     0.061274664 RMS     0.050418089
 Search for a local minimum.
 Step number   1 out of a maximum of   20
 All quantities printed in internal units (Hartrees-Bohrs-Radians)
 RMS Force = .50418D-01 SwitMx=.10000D-02 MixMth= 1
 Mixed Optimization -- RFO/linear search
 Second derivative matrix not updated -- first step.
 The second derivative matrix:
                          R1        R2        A1
           R1           0.67525
           R2           0.00000   0.67525
           A1           0.00000   0.00000   0.16000
 ITU=  0
     Eigenvalues ---    0.16000   0.67525   0.67525
 RFO step:  Lambda=-1.16130603D-02 EMin= 1.60000000D-01
 Linear search not attempted -- first point.
 GrdOpt: GIC=T ITstSp=  0 NP=   1 DidLin=F DidDIS=F IDoGRo=0 IDoRot=0
         ISwap=1 XLin= 0.000 DXMaxT= 0.300
 Iteration  1 RMS(Cart)=  0.03313127 RMS(Int)=  0.00191945
 Iteration  2 RMS(Cart)=  0.00119212 RMS(Int)=  0.00000197
 Iteration  3 RMS(Cart)=  0.00000083 RMS(Int)=  0.00000000
 ClnCor:  largest displacement from symmetrization is 4.00D-16 for atom     3.
 Variable       Old X    -DE/DX   Delta X   Delta X   Delta X     New X
                                 (Linear)    (Quad)   (Total)
    R1        1.72139   0.06127   0.00000   0.08921   0.08921   1.81060
    R2        1.72139   0.06127   0.00000   0.08921   0.08921   1.81060
    A1        1.96824  -0.01081   0.00000  -0.06297  -0.06297   1.90527
         Item               Value     Threshold  Converged?
 Maximum Force            0.061275     0.000450     NO 
 RMS     Force            0.050418     0.000300     NO 
 Maximum Displacement     0.064238     0.001800     NO 
 RMS     Displacement     0.056910     0.001200     NO 
 Predicted change in Energy=-5.921976D-03
 Lowest energy point so far.  Saving SCF results.
 GradGradGradGradGradGradGradGradGradGradGradGradGradGradGradGradGradGrad

 Leave Link  103 at Wed Sep  3 17:15:25 2025, MaxMem= 12348030976 cpu:               0.6 elap:               0.0
 (Enter /home/hhratchian/gaussian/gdv-20250101-j30+/gdv/l202.exe)
                          Input orientation:                          
 ---------------------------------------------------------------------
 Center     Atomic      Atomic             Coordinates (Angstroms)
 Number     Number       Type             X           Y           Z
 ---------------------------------------------------------------------
      1          8           0       -0.000000    0.000000   -0.033993
      2          1           0        0.780823    0.000000    0.521281
      3          1           0       -0.780823   -0.000000    0.521281
 ---------------------------------------------------------------------
                    Distance matrix (angstroms):
                    1          2          3
     1  O    0.000000
     2  H    0.958130   0.000000
     3  H    0.958130   1.561645   0.000000
 Stoichiometry    H2O
 Framework group  C2V[C2(O),SGV(H2)]
 Deg. of freedom     2
 Full point group                 C2V     NOp   4
 RotChk:  IX=0 Diff= 7.22D-16
 Largest Abelian subgroup         C2V     NOp   4
 Largest concise Abelian subgroup C2      NOp   2
                         Standard orientation:                         
 ---------------------------------------------------------------------
 Center     Atomic      Atomic             Coordinates (Angstroms)
 Number     Number       Type             X           Y           Z
 ---------------------------------------------------------------------
      1          8           0        0.000000    0.000000    0.111055
      2          1           0       -0.000000    0.780823   -0.444219
      3          1           0       -0.000000   -0.780823   -0.444219
 ---------------------------------------------------------------------
 Rotational constants (GHZ):         915.6582116         411.2417451         283.7869419
 Leave Link  202 at Wed Sep  3 17:15:25 2025, MaxMem= 12348030976 cpu:               2.6 elap:               0.1
 (Enter /home/hhratchian/gaussian/gdv-20250101-j30+/gdv/local/l301.exe)
 Basis read from rwf:  (6D, 7F)
 No pseudopotential information found on rwf file.
 There are    14 symmetry adapted cartesian basis functions of A1  symmetry.
 There are     2 symmetry adapted cartesian basis functions of A2  symmetry.
 There are     5 symmetry adapted cartesian basis functions of B1  symmetry.
 There are     8 symmetry adapted cartesian basis functions of B2  symmetry.
 There are    14 symmetry adapted basis functions of A1  symmetry.
 There are     2 symmetry adapted basis functions of A2  symmetry.
 There are     5 symmetry adapted basis functions of B1  symmetry.
 There are     8 symmetry adapted basis functions of B2  symmetry.
    29 basis functions,    46 primitive gaussians,    29 cartesian basis functions
     5 alpha electrons        5 beta electrons
       nuclear repulsion energy         9.1756933847 Hartrees.
 IExCor=   2004019 DFT=T Ex+Corr=CAM-B3LYP ScaHFX=  1.000000
 ScaDFX=  1.000000  1.000000  1.000000  0.810000  1.000000  0.000000
 ScaDFX=  0.000000  0.000000  0.000000  0.000000  0.000000  0.000000
 Grid=SuperFine IRanWt=     -1 IRanGd=            0 ICorTp=0 IEDCtl=  2004
 HFx  wShort=  0.000000 wLong=  0.330000 cFull=  0.190000 cShort=  0.000000 cLong=  0.460000
 DFx  wShort=  0.330000 wLong=  0.000000 cFull=  0.350000 cShort=  0.460000 cLong=  0.000000
 NAtoms=    3 NActive=    3 NUniq=    2 SFac= 2.25D+00 NAtFMM=   60 NAOKFM=F Big=F
 Integral buffers will be    131072 words long.
 Raffenetti 2 integral format.
 Two-electron integral symmetry is turned on.
 No density basis found on file    724.
 Leave Link  301 at Wed Sep  3 17:15:25 2025, MaxMem= 12348030976 cpu:               1.1 elap:               0.1
 (Enter /home/hhratchian/gaussian/gdv-20250101-j30+/gdv/l302.exe)
 NPDir=0 NMtPBC=     1 NCelOv=     1 NCel=       1 NClECP=     1 NCelD=      1
         NCelK=      1 NCelE2=     1 NClLst=     1 CellRange=     0.0.
 One-electron integrals computed using PRISM.
 One-electron integral symmetry used in STVInt
 NBasis=    29 RedAO= T EigKep=  1.78D-02  NBF=    14     2     5     8
 NBsUse=    29 1.00D-06 EigRej= -1.00D+00 NBFU=    14     2     5     8
 Precomputing XC quadrature grid using
 IXCGrd=   9 Grid=SuperFine IRanWt=          -1 IRanGd=           0 AccXCQ= 0.00D+00.
 Generated NRdTot=       0 NPtTot=      190960 NUsed=           0 NTot=          64
 NSgBfM=    29    29    29    29    29 MxSgAt=     3 MxSgA2=     3 SizInc=   0.000
 NMBTot=     1457 MaxBatPerAtom=      126 MaxMicBPerAtom=      489 NBfPt=             4645289.
 Leave Link  302 at Wed Sep  3 17:15:25 2025, MaxMem= 12348030976 cpu:               5.6 elap:               0.2
 (Enter /home/hhratchian/gaussian/gdv-20250101-j30+/gdv/l303.exe)
 DipDrv:  MaxL=1.
 Leave Link  303 at Wed Sep  3 17:15:26 2025, MaxMem= 12348030976 cpu:               2.4 elap:               0.1
 (Enter /home/hhratchian/gaussian/gdv-20250101-j30+/gdv/l401.exe)
 Initial guess from the checkpoint file:  "H2O_CAM-B3LYP_6-31+Gdp_q0_m1.chk"
 B after Tr=    -0.000000   -0.000000    0.000000
         Rot=    1.000000   -0.000000   -0.000000   -0.000000 Ang=   0.00 deg.
 AO Guess basis will be translated and rotated to current coordinates.
 JPrj=2 DoOrth=T DoCkMO=T.
 Initial guess orbital symmetries:
       Occupied  (A1) (A1) (B2) (A1) (B1)
       Virtual   (A1) (B2) (A1) (B1) (B2) (A1) (B2) (A1) (B2) (A1)
                 (B1) (A1) (A2) (A1) (B1) (B2) (A1) (B2) (B1) (A2)
                 (A1) (A1) (B2) (A1)
 The electronic state of the initial guess is 1-A1.
 Generating alternative initial guess.
 ExpMin= 8.45D-02 ExpMax= 5.48D+03 ExpMxC= 8.25D+02 IAcc=3 Grid=SuperFine AccDes= 0.00D+00
 Harris functional with IExCor=10009 and Grid=SuperFine diagonalized for initial guess.
 HarFok:  IExCor=   10009 AccDes= 0.00D+00 Grid=SuperFine IDoV= 1 UseB2=F ITyADJ=14 ICtDFT=  3500011
 FoFCou: FMM=F IPFlag=           0 FMFlag=      100000 FMFlg1=           0
         NFxFlg=           0 DoJE=T BraDBF=F KetDBF=T FulRan=T
         wScrn=  0.000000 ICntrl=       500 IOpCl=  0 I1Cent=   200000004 NGrid=           0
         NMat0=    1 NMatS0=      1 NMatT0=    0 NMatD0=    1 NMtDS0=    0 NMtDT0=    0
 Petite list used in FoFCou.
 Harris En= -76.3895073253526    
 Leave Link  401 at Wed Sep  3 17:15:26 2025, MaxMem= 12348030976 cpu:               9.1 elap:               0.2
 (Enter /home/hhratchian/gaussian/gdv-20250101-j30+/gdv/local/l502.exe)
 Keep R1 ints in memory in symmetry-blocked form, NReq=48859339.
 FoFCou: FMM=F IPFlag=           0 FMFlag=           0 FMFlg1=           0
         NFxFlg=           0 DoJE=F BraDBF=F KetDBF=F FulRan=T
         wScrn=  0.000000 ICntrl=       600 IOpCl=  0 I1Cent=           0 NGrid=           0
         NMat0=    1 NMatS0=    435 NMatT0=    0 NMatD0=    1 NMtDS0=    0 NMtDT0=    0
 Petite list used in FoFCou.
 Closed shell SCF:
 Using DIIS extrapolation, IDIIS=    10.
 NGot= 12348030976 LenX= 12347998860 LenY= 12347997578
 Requested convergence on RMS density matrix=1.00D-08 within 128 cycles.
 Requested convergence on MAX density matrix=1.00D-06.
 Requested convergence on             energy=1.00D-06.
 Level shift goal  0.100 maximum shift  0.100.
 No special actions if energy rises.
 Dynamic level shift is on during FON iterations.
 
  Hrant - CycOpn.
 

 Cycle   1  Pass 1  IDiag  1:
 E= -76.4038857854545    
 DIIS: error= 8.60D-03 at cycle   1 NSaved=   1.
 NSaved= 1 IEnMin= 1 EnMin= -76.4038857854545     IErMin= 1 ErrMin= 8.60D-03
 ErrMax= 8.60D-03  0.00D+00 EMaxC= 1.00D+00 BMatC= 7.25D-04 BMatP= 7.25D-04
 Rises=F IDIUse=1 WtCom= 1.00D+00 WtEn= 0.00D+00
 Coeff-Com:  0.100D+01
 Coeff:      0.100D+01
 Gap=     0.461 Goal=     0.100 Shift=    0.000
 T=  747. Gap= 0.453 NK=0 IS=    6 IE=   29 IFin=    5
          NO(<0.9)=   0  NV(>0.1)=   0      5.00e < EF      0.00e >EF  Err=0.0D+00
 GapD=    0.461 DampG=2.000 DampE=1.000 DampFc=2.0000 IDamp=-1.
 RMSDP=1.61D-03 MaxDP=1.16D-02              OVMax= 1.69D-02

 Cycle   2  Pass 1  IDiag  1:
 E= -76.4051472277960     Delta-E=       -0.001261442342 Rises=F Damp=F AM=F Ri=F Fa=F
 DIIS: error= 4.74D-03 at cycle   2 NSaved=   2.
 NSaved= 2 IEnMin= 2 EnMin= -76.4051472277960     IErMin= 2 ErrMin= 4.74D-03
 ErrMax= 4.74D-03  0.00D+00 EMaxC= 1.00D+00 BMatC= 2.42D-04 BMatP= 7.25D-04
 Rises=F IDIUse=1 WtCom= 1.00D+00 WtEn= 0.00D+00
 Coeff-Com:  0.296D+00 0.704D+00
 Coeff:      0.296D+00 0.704D+00
 Gap=     0.465 Goal=     0.100 Shift=    0.000
 T=  649. Gap= 0.465 NK=0 IS=    6 IE=   29 IFin=    5
          NO(<0.9)=   0  NV(>0.1)=   0      5.00e < EF      0.00e >EF  Err=0.0D+00
 GapD=    0.465 DampG=2.000 DampE=1.000 DampFc=2.0000 IDamp=-1.
 RMSDP=5.69D-04 MaxDP=7.92D-03 DE=-1.26D-03 OVMax= 8.32D-03

 Cycle   3  Pass 1  IDiag  1:
 E= -76.4053848784286     Delta-E=       -0.000237650633 Rises=F Damp=F AM=F Ri=F Fa=F
 DIIS: error= 2.38D-03 at cycle   3 NSaved=   3.
 NSaved= 3 IEnMin= 3 EnMin= -76.4053848784286     IErMin= 3 ErrMin= 2.38D-03
 ErrMax= 2.38D-03  0.00D+00 EMaxC= 1.00D+00 BMatC= 7.63D-05 BMatP= 2.42D-04
 Rises=F IDIUse=1 WtCom= 1.00D+00 WtEn= 0.00D+00
 Coeff-Com: -0.449D-01 0.354D+00 0.690D+00
 Coeff:     -0.449D-01 0.354D+00 0.690D+00
 Gap=     0.461 Goal=     0.100 Shift=    0.000
 T=  449. Gap= 0.461 NK=0 IS=    6 IE=   29 IFin=    5
          NO(<0.9)=   0  NV(>0.1)=   0      5.00e < EF      0.00e >EF  Err=0.0D+00
 GapD=    0.461 DampG=2.000 DampE=1.000 DampFc=2.0000 IDamp=-1.
 RMSDP=2.61D-04 MaxDP=3.03D-03 DE=-2.38D-04 OVMax= 3.73D-03

 Cycle   4  Pass 1  IDiag  1:
 E= -76.4054965670253     Delta-E=       -0.000111688597 Rises=F Damp=F AM=F Ri=F Fa=F
 DIIS: error= 1.17D-04 at cycle   4 NSaved=   4.
 NSaved= 4 IEnMin= 4 EnMin= -76.4054965670253     IErMin= 4 ErrMin= 1.17D-04
 ErrMax= 1.17D-04  0.00D+00 EMaxC= 1.00D+00 BMatC= 2.22D-07 BMatP= 7.63D-05
 Rises=F IDIUse=1 WtCom= 1.00D+00 WtEn= 0.00D+00
 Coeff-Com: -0.965D-02 0.113D-01 0.560D-01 0.942D+00
 Coeff:     -0.965D-02 0.113D-01 0.560D-01 0.942D+00
 Gap=     0.461 Goal=     0.100 Shift=    0.000
 RMSDP=4.04D-05 MaxDP=3.64D-04 DE=-1.12D-04 OVMax= 5.84D-04

 Cycle   5  Pass 1  IDiag  1:
 E= -76.4054973751367     Delta-E=       -0.000000808111 Rises=F Damp=F AM=F Ri=F Fa=F
 DIIS: error= 3.52D-05 at cycle   5 NSaved=   5.
 NSaved= 5 IEnMin= 5 EnMin= -76.4054973751367     IErMin= 5 ErrMin= 3.52D-05
 ErrMax= 3.52D-05  0.00D+00 EMaxC= 1.00D+00 BMatC= 8.76D-09 BMatP= 2.22D-07
 Rises=F IDIUse=1 WtCom= 1.00D+00 WtEn= 0.00D+00
 Coeff-Com:  0.218D-02-0.175D-01-0.338D-01-0.373D-01 0.109D+01
 Coeff:      0.218D-02-0.175D-01-0.338D-01-0.373D-01 0.109D+01
 Gap=     0.461 Goal=     0.100 Shift=    0.000
 RMSDP=1.47D-05 MaxDP=1.62D-04 DE=-8.08D-07 OVMax= 2.13D-04

 Cycle   6  Pass 1  IDiag  1:
 E= -76.4054974304023     Delta-E=       -0.000000055266 Rises=F Damp=F AM=F Ri=F Fa=F
 DIIS: error= 3.92D-06 at cycle   6 NSaved=   6.
 NSaved= 6 IEnMin= 6 EnMin= -76.4054974304023     IErMin= 6 ErrMin= 3.92D-06
 ErrMax= 3.92D-06  0.00D+00 EMaxC= 1.00D+00 BMatC= 1.14D-10 BMatP= 8.76D-09
 Rises=F IDIUse=1 WtCom= 1.00D+00 WtEn= 0.00D+00
 Coeff-Com: -0.104D-03 0.183D-02 0.347D-02-0.126D-01-0.134D+00 0.114D+01
 Coeff:     -0.104D-03 0.183D-02 0.347D-02-0.126D-01-0.134D+00 0.114D+01
 Gap=     0.461 Goal=     0.100 Shift=    0.000
 RMSDP=1.81D-06 MaxDP=1.82D-05 DE=-5.53D-08 OVMax= 2.67D-05

 Cycle   7  Pass 1  IDiag  1:
 E= -76.4054974312405     Delta-E=       -0.000000000838 Rises=F Damp=F AM=F Ri=F Fa=F
 DIIS: error= 3.48D-07 at cycle   7 NSaved=   7.
 NSaved= 7 IEnMin= 7 EnMin= -76.4054974312405     IErMin= 7 ErrMin= 3.48D-07
 ErrMax= 3.48D-07  0.00D+00 EMaxC= 1.00D+00 BMatC= 1.18D-12 BMatP= 1.14D-10
 Rises=F IDIUse=1 WtCom= 1.00D+00 WtEn= 0.00D+00
 Coeff-Com: -0.862D-06-0.136D-03-0.296D-03 0.220D-02 0.131D-01-0.208D+00
 Coeff-Com:  0.119D+01
 Coeff:     -0.862D-06-0.136D-03-0.296D-03 0.220D-02 0.131D-01-0.208D+00
 Coeff:      0.119D+01
 Gap=     0.461 Goal=     0.100 Shift=    0.000
 RMSDP=1.90D-07 MaxDP=1.91D-06 DE=-8.38D-10 OVMax= 2.67D-06

 Cycle   8  Pass 1  IDiag  1:
 E= -76.4054974312494     Delta-E=       -0.000000000009 Rises=F Damp=F AM=F Ri=F Fa=F
 DIIS: error= 2.48D-08 at cycle   8 NSaved=   8.
 NSaved= 8 IEnMin= 8 EnMin= -76.4054974312494     IErMin= 8 ErrMin= 2.48D-08
 ErrMax= 2.48D-08  0.00D+00 EMaxC= 1.00D+00 BMatC= 7.80D-15 BMatP= 1.18D-12
 Rises=F IDIUse=1 WtCom= 1.00D+00 WtEn= 0.00D+00
 Coeff-Com:  0.112D-05-0.489D-05 0.290D-05-0.570D-04-0.158D-03 0.105D-01
 Coeff-Com: -0.114D+00 0.110D+01
 Coeff:      0.112D-05-0.489D-05 0.290D-05-0.570D-04-0.158D-03 0.105D-01
 Coeff:     -0.114D+00 0.110D+01
 Gap=     0.461 Goal=     0.100 Shift=    0.000
 RMSDP=1.35D-08 MaxDP=1.05D-07 DE=-8.90D-12 OVMax= 1.17D-07

 Cycle   9  Pass 1  IDiag  1:
 E= -76.4054974312493     Delta-E=        0.000000000000 Rises=F Damp=F AM=F Ri=F Fa=F
 DIIS: error= 1.25D-09 at cycle   9 NSaved=   9.
 NSaved= 9 IEnMin= 8 EnMin= -76.4054974312494     IErMin= 9 ErrMin= 1.25D-09
 ErrMax= 1.25D-09  0.00D+00 EMaxC= 1.00D+00 BMatC= 3.23D-17 BMatP= 7.80D-15
 Rises=F IDIUse=1 WtCom= 1.00D+00 WtEn= 0.00D+00
 Coeff-Com: -0.771D-07 0.455D-06-0.312D-06-0.197D-05 0.334D-04-0.953D-03
 Coeff-Com:  0.114D-01-0.141D+00 0.113D+01
 Coeff:     -0.771D-07 0.455D-06-0.312D-06-0.197D-05 0.334D-04-0.953D-03
 Coeff:      0.114D-01-0.141D+00 0.113D+01
 Gap=     0.461 Goal=     0.100 Shift=    0.000
 RMSDP=7.36D-10 MaxDP=6.25D-09 DE= 7.11D-14 OVMax= 7.46D-09

 SCF Done:  E(RCAM-B3LYP) =  -76.4054974312     A.U. after    9 cycles
            NFock=  9  Conv=0.74D-09     -V/T= 2.0089
 KE=          75.728382 PE=        -198.627331 EE=          37.317759
 Leave Link  502 at Wed Sep  3 17:15:26 2025, MaxMem= 12348030976 cpu:              12.1 elap:               0.3
 (Enter /home/hhratchian/gaussian/gdv-20250101-j30+/gdv/l701.exe)
 ... and contract with generalized density number  0.
 Compute integral first derivatives.
 Leave Link  701 at Wed Sep  3 17:15:26 2025, MaxMem= 12348030976 cpu:               5.7 elap:               0.2
 (Enter /home/hhratchian/gaussian/gdv-20250101-j30+/gdv/l702.exe)
 L702 exits ... SP integral derivatives will be done elsewhere.
 Leave Link  702 at Wed Sep  3 17:15:26 2025, MaxMem= 12348030976 cpu:               0.1 elap:               0.0
 (Enter /home/hhratchian/gaussian/gdv-20250101-j30+/gdv/l703.exe)
 Integral derivatives from FoFJK, PRISM(SPDF).
 Compute integral first derivatives, UseDBF=F ICtDFT=           0.
 Calling FoFJK, ICntrl=      2127 FMM=F ISym2X=1 I1Cent= 0 IOpClX= 0 NMat=1 NMatS=1 NMatT=0.
 FoFJK:  IHMeth= 1 ICntrl=    2127 DoSepK=T KAlg= 0 I1Cent=           0 FoldK=F
 IRaf=         1 NMat=       1 IRICut=       1 DoRegI=T DoRafI=F ISym2E= 1 IDoP0=0 IntGTp=1.
 FoFCou: FMM=F IPFlag=           0 FMFlag=      100000 FMFlg1=         800
         NFxFlg=           0 DoJE=F BraDBF=F KetDBF=F FulRan=T
         wScrn=  0.000000 ICntrl=      2527 IOpCl=  0 I1Cent=           0 NGrid=           0
         NMat0=    1 NMatS0=      1 NMatT0=    0 NMatD0=    1 NMtDS0=    0 NMtDT0=    0
 Petite list used in FoFCou.
 Leave Link  703 at Wed Sep  3 17:15:27 2025, MaxMem= 12348030976 cpu:               9.3 elap:               0.2
 (Enter /home/hhratchian/gaussian/gdv-20250101-j30+/gdv/l716.exe)
 Dipole        =-5.82551659D-17 0.00000000D+00-8.52974525D-01
 ***** Axes restored to original set *****
 -------------------------------------------------------------------
 Center     Atomic                   Forces (Hartrees/Bohr)
 Number     Number              X              Y              Z
 -------------------------------------------------------------------
      1        8           0.000000000   -0.000000000   -0.010953158
      2        1           0.000974678    0.000000000    0.005476579
      3        1          -0.000974678    0.000000000    0.005476579
 -------------------------------------------------------------------
 Cartesian Forces:  Max     0.010953158 RMS     0.004495152
 Leave Link  716 at Wed Sep  3 17:15:27 2025, MaxMem= 12348030976 cpu:               0.1 elap:               0.0
 (Enter /home/hhratchian/gaussian/gdv-20250101-j30+/gdv/l103.exe)

 GradGradGradGradGradGradGradGradGradGradGradGradGradGradGradGradGradGrad
 Berny optimization.
 Using GEDIIS/GDIIS optimizer.
 FormGI is forming the generalized inverse of G from B-inverse, IUseBI=4.
 NTrRot=    -1 NTRed=     3 NAtoms=     3 NSkip=     0 NRank=     3 IsLin=F EigSml=7.9766D-01
 Internal  Forces:  Max     0.007058173 RMS     0.005206119
 Search for a local minimum.
 Step number   2 out of a maximum of   20
 All quantities printed in internal units (Hartrees-Bohrs-Radians)
 RMS Force = .52061D-02 SwitMx=.10000D-02 MixMth= 1
 Mixed Optimization -- RFO/linear search
 Update second derivatives using D2CorX and points    1    2
 DE= -6.10D-03 DEPred=-5.92D-03 R= 1.03D+00
 TightC=F SS=  1.41D+00  RLast= 1.41D-01 DXNew= 5.0454D-01 4.2301D-01
 Trust test= 1.03D+00 RLast= 1.41D-01 DXMaxT set to 4.23D-01
 The second derivative matrix:
                          R1        R2        A1
           R1           0.67039
           R2          -0.00486   0.67039
           A1           0.03279   0.03279   0.15242
 ITU=  1  0
 Use linear search instead of GDIIS.
     Eigenvalues ---    0.14827   0.66968   0.67525
 RFO step:  Lambda=-3.54862856D-04 EMin= 1.48268143D-01
 Quartic linear search produced a step of  0.13349.
 GrdOpt: GIC=T ITstSp=  0 NP=   2 DidLin=T DidDIS=F IDoGRo=0 IDoRot=0
         ISwap=1 XLin= 0.133 DXMaxT= 0.423
 Iteration  1 RMS(Cart)=  0.01613941 RMS(Int)=  0.00060148
 Iteration  2 RMS(Cart)=  0.00035189 RMS(Int)=  0.00000008
 Iteration  3 RMS(Cart)=  0.00000004 RMS(Int)=  0.00000000
 ClnCor:  largest displacement from symmetrization is 4.97D-16 for atom     3.
 Variable       Old X    -DE/DX   Delta X   Delta X   Delta X     New X
                                 (Linear)    (Quad)   (Total)
    R1        1.81060   0.00397   0.01191  -0.00156   0.01035   1.82096
    R2        1.81060   0.00397   0.01191  -0.00156   0.01035   1.82096
    A1        1.90527  -0.00706  -0.00841  -0.04731  -0.05572   1.84955
         Item               Value     Threshold  Converged?
 Maximum Force            0.007058     0.000450     NO 
 RMS     Force            0.005206     0.000300     NO 
 Maximum Displacement     0.031285     0.001800     NO 
 RMS     Displacement     0.028259     0.001200     NO 
 Predicted change in Energy=-2.053248D-04
 Lowest energy point so far.  Saving SCF results.
 GradGradGradGradGradGradGradGradGradGradGradGradGradGradGradGradGradGrad

 Leave Link  103 at Wed Sep  3 17:15:27 2025, MaxMem= 12348030976 cpu:               0.2 elap:               0.0
 (Enter /home/hhratchian/gaussian/gdv-20250101-j30+/gdv/l202.exe)
                          Input orientation:                          
 ---------------------------------------------------------------------
 Center     Atomic      Atomic             Coordinates (Angstroms)
 Number     Number       Type             X           Y           Z
 ---------------------------------------------------------------------
      1          8           0       -0.000000    0.000000   -0.050548
      2          1           0        0.769427    0.000000    0.529558
      3          1           0       -0.769427   -0.000000    0.529558
 ---------------------------------------------------------------------
                    Distance matrix (angstroms):
                    1          2          3
     1  O    0.000000
     2  H    0.963608   0.000000
     3  H    0.963608   1.538854   0.000000
 Stoichiometry    H2O
 Framework group  C2V[C2(O),SGV(H2)]
 Deg. of freedom     2
 Full point group                 C2V     NOp   4
 RotChk:  IX=0 Diff= 2.87D-16
 Largest Abelian subgroup         C2V     NOp   4
 Largest concise Abelian subgroup C2      NOp   2
                         Standard orientation:                         
 ---------------------------------------------------------------------
 Center     Atomic      Atomic             Coordinates (Angstroms)
 Number     Number       Type             X           Y           Z
 ---------------------------------------------------------------------
      1          8           0       -0.000000   -0.000000    0.116021
      2          1           0       -0.000000    0.769427   -0.464085
      3          1           0       -0.000000   -0.769427   -0.464085
 ---------------------------------------------------------------------
 Rotational constants (GHZ):         838.9423034         423.5136766         281.4383590
 Leave Link  202 at Wed Sep  3 17:15:27 2025, MaxMem= 12348030976 cpu:               1.4 elap:               0.0
 (Enter /home/hhratchian/gaussian/gdv-20250101-j30+/gdv/local/l301.exe)
 Basis read from rwf:  (6D, 7F)
 No pseudopotential information found on rwf file.
 There are    14 symmetry adapted cartesian basis functions of A1  symmetry.
 There are     2 symmetry adapted cartesian basis functions of A2  symmetry.
 There are     5 symmetry adapted cartesian basis functions of B1  symmetry.
 There are     8 symmetry adapted cartesian basis functions of B2  symmetry.
 There are    14 symmetry adapted basis functions of A1  symmetry.
 There are     2 symmetry adapted basis functions of A2  symmetry.
 There are     5 symmetry adapted basis functions of B1  symmetry.
 There are     8 symmetry adapted basis functions of B2  symmetry.
    29 basis functions,    46 primitive gaussians,    29 cartesian basis functions
     5 alpha electrons        5 beta electrons
       nuclear repulsion energy         9.1304714337 Hartrees.
 IExCor=   2004019 DFT=T Ex+Corr=CAM-B3LYP ScaHFX=  1.000000
 ScaDFX=  1.000000  1.000000  1.000000  0.810000  1.000000  0.000000
 ScaDFX=  0.000000  0.000000  0.000000  0.000000  0.000000  0.000000
 Grid=SuperFine IRanWt=     -1 IRanGd=            0 ICorTp=0 IEDCtl=  2004
 HFx  wShort=  0.000000 wLong=  0.330000 cFull=  0.190000 cShort=  0.000000 cLong=  0.460000
 DFx  wShort=  0.330000 wLong=  0.000000 cFull=  0.350000 cShort=  0.460000 cLong=  0.000000
 NAtoms=    3 NActive=    3 NUniq=    2 SFac= 2.25D+00 NAtFMM=   60 NAOKFM=F Big=F
 Integral buffers will be    131072 words long.
 Raffenetti 2 integral format.
 Two-electron integral symmetry is turned on.
 No density basis found on file    724.
 Leave Link  301 at Wed Sep  3 17:15:27 2025, MaxMem= 12348030976 cpu:               1.3 elap:               0.1
 (Enter /home/hhratchian/gaussian/gdv-20250101-j30+/gdv/l302.exe)
 NPDir=0 NMtPBC=     1 NCelOv=     1 NCel=       1 NClECP=     1 NCelD=      1
         NCelK=      1 NCelE2=     1 NClLst=     1 CellRange=     0.0.
 One-electron integrals computed using PRISM.
 One-electron integral symmetry used in STVInt
 NBasis=    29 RedAO= T EigKep=  1.75D-02  NBF=    14     2     5     8
 NBsUse=    29 1.00D-06 EigRej= -1.00D+00 NBFU=    14     2     5     8
 Precomputing XC quadrature grid using
 IXCGrd=   9 Grid=SuperFine IRanWt=          -1 IRanGd=           0 AccXCQ= 0.00D+00.
 Generated NRdTot=       0 NPtTot=      190879 NUsed=           0 NTot=          64
 NSgBfM=    29    29    29    29    29 MxSgAt=     3 MxSgA2=     3 SizInc=   0.000
 NMBTot=     1449 MaxBatPerAtom=      126 MaxMicBPerAtom=      487 NBfPt=             4644503.
 Leave Link  302 at Wed Sep  3 17:15:27 2025, MaxMem= 12348030976 cpu:               6.3 elap:               0.2
 (Enter /home/hhratchian/gaussian/gdv-20250101-j30+/gdv/l303.exe)
 DipDrv:  MaxL=1.
 Leave Link  303 at Wed Sep  3 17:15:27 2025, MaxMem= 12348030976 cpu:               1.6 elap:               0.1
 (Enter /home/hhratchian/gaussian/gdv-20250101-j30+/gdv/l401.exe)
 Initial guess from the checkpoint file:  "H2O_CAM-B3LYP_6-31+Gdp_q0_m1.chk"
 B after Tr=     0.000000    0.000000    0.000000
         Rot=    1.000000    0.000000   -0.000000   -0.000000 Ang=   0.00 deg.
 AO Guess basis will be translated and rotated to current coordinates.
 JPrj=2 DoOrth=T DoCkMO=T.
 Initial guess orbital symmetries:
       Occupied  (A1) (A1) (B2) (A1) (B1)
       Virtual   (A1) (B2) (A1) (B1) (B2) (A1) (B2) (A1) (B2) (B1)
                 (A1) (A1) (A2) (A1) (B1) (B2) (A1) (B2) (B1) (A2)
                 (A1) (A1) (B2) (A1)
 The electronic state of the initial guess is 1-A1.
 Generating alternative initial guess.
 ExpMin= 8.45D-02 ExpMax= 5.48D+03 ExpMxC= 8.25D+02 IAcc=3 Grid=SuperFine AccDes= 0.00D+00
 Harris functional with IExCor=10009 and Grid=SuperFine diagonalized for initial guess.
 HarFok:  IExCor=   10009 AccDes= 0.00D+00 Grid=SuperFine IDoV= 1 UseB2=F ITyADJ=14 ICtDFT=  3500011
 FoFCou: FMM=F IPFlag=           0 FMFlag=      100000 FMFlg1=           0
         NFxFlg=           0 DoJE=T BraDBF=F KetDBF=T FulRan=T
         wScrn=  0.000000 ICntrl=       500 IOpCl=  0 I1Cent=   200000004 NGrid=           0
         NMat0=    1 NMatS0=      1 NMatT0=    0 NMatD0=    1 NMtDS0=    0 NMtDT0=    0
 Petite list used in FoFCou.
 Harris En= -76.3891463160440    
 Leave Link  401 at Wed Sep  3 17:15:27 2025, MaxMem= 12348030976 cpu:               4.9 elap:               0.2
 (Enter /home/hhratchian/gaussian/gdv-20250101-j30+/gdv/local/l502.exe)
 Keep R1 ints in memory in symmetry-blocked form, NReq=48859339.
 FoFCou: FMM=F IPFlag=           0 FMFlag=           0 FMFlg1=           0
         NFxFlg=           0 DoJE=F BraDBF=F KetDBF=F FulRan=T
         wScrn=  0.000000 ICntrl=       600 IOpCl=  0 I1Cent=           0 NGrid=           0
         NMat0=    1 NMatS0=    435 NMatT0=    0 NMatD0=    1 NMtDS0=    0 NMtDT0=    0
 Petite list used in FoFCou.
 Closed shell SCF:
 Using DIIS extrapolation, IDIIS=    10.
 NGot= 12348030976 LenX= 12347998860 LenY= 12347997578
 Requested convergence on RMS density matrix=1.00D-08 within 128 cycles.
 Requested convergence on MAX density matrix=1.00D-06.
 Requested convergence on             energy=1.00D-06.
 Level shift goal  0.100 maximum shift  0.100.
 No special actions if energy rises.
 Dynamic level shift is on during FON iterations.
 
  Hrant - CycOpn.
 

 Cycle   1  Pass 1  IDiag  1:
 E= -76.4055751434737    
 DIIS: error= 2.02D-03 at cycle   1 NSaved=   1.
 NSaved= 1 IEnMin= 1 EnMin= -76.4055751434737     IErMin= 1 ErrMin= 2.02D-03
 ErrMax= 2.02D-03  0.00D+00 EMaxC= 1.00D+00 BMatC= 5.36D-05 BMatP= 5.36D-05
 Rises=F IDIUse=1 WtCom= 1.00D+00 WtEn= 0.00D+00
 Coeff-Com:  0.100D+01
 Coeff:      0.100D+01
 Gap=     0.459 Goal=     0.100 Shift=    0.000
 GapD=    0.459 DampG=2.000 DampE=1.000 DampFc=2.0000 IDamp=-1.
 RMSDP=5.76D-04 MaxDP=4.20D-03              OVMax= 5.62D-03

 Cycle   2  Pass 1  IDiag  1:
 E= -76.4057079179069     Delta-E=       -0.000132774433 Rises=F Damp=F AM=F Ri=F Fa=F
 DIIS: error= 6.24D-04 at cycle   2 NSaved=   2.
 NSaved= 2 IEnMin= 2 EnMin= -76.4057079179069     IErMin= 2 ErrMin= 6.24D-04
 ErrMax= 6.24D-04  0.00D+00 EMaxC= 1.00D+00 BMatC= 4.75D-06 BMatP= 5.36D-05
 Rises=F IDIUse=1 WtCom= 1.00D+00 WtEn= 0.00D+00
 Coeff-Com:  0.175D-01 0.983D+00
 Coeff:      0.175D-01 0.983D+00
 Gap=     0.460 Goal=     0.100 Shift=    0.000
 RMSDP=1.41D-04 MaxDP=1.43D-03 DE=-1.33D-04 OVMax= 1.66D-03

 Cycle   3  Pass 1  IDiag  1:
 E= -76.4057095567327     Delta-E=       -0.000001638826 Rises=F Damp=F AM=F Ri=F Fa=F
 DIIS: error= 6.59D-04 at cycle   3 NSaved=   3.
 NSaved= 3 IEnMin= 3 EnMin= -76.4057095567327     IErMin= 2 ErrMin= 6.24D-04
 ErrMax= 6.59D-04  0.00D+00 EMaxC= 1.00D+00 BMatC= 5.35D-06 BMatP= 4.75D-06
 Rises=F IDIUse=1 WtCom= 1.00D+00 WtEn= 0.00D+00
 Coeff-Com: -0.731D-01 0.555D+00 0.518D+00
 Coeff:     -0.731D-01 0.555D+00 0.518D+00
 Gap=     0.459 Goal=     0.100 Shift=    0.000
 RMSDP=6.68D-05 MaxDP=7.20D-04 DE=-1.64D-06 OVMax= 8.05D-04

 Cycle   4  Pass 1  IDiag  1:
 E= -76.4057171054603     Delta-E=       -0.000007548728 Rises=F Damp=F AM=F Ri=F Fa=F
 DIIS: error= 2.31D-05 at cycle   4 NSaved=   4.
 NSaved= 4 IEnMin= 4 EnMin= -76.4057171054603     IErMin= 4 ErrMin= 2.31D-05
 ErrMax= 2.31D-05  0.00D+00 EMaxC= 1.00D+00 BMatC= 6.19D-09 BMatP= 4.75D-06
 Rises=F IDIUse=1 WtCom= 1.00D+00 WtEn= 0.00D+00
 Coeff-Com:  0.998D-02-0.108D+00-0.754D-01 0.117D+01
 Coeff:      0.998D-02-0.108D+00-0.754D-01 0.117D+01
 Gap=     0.459 Goal=     0.100 Shift=    0.000
 RMSDP=1.53D-05 MaxDP=1.21D-04 DE=-7.55D-06 OVMax= 1.50D-04

 Cycle   5  Pass 1  IDiag  1:
 E= -76.4057171388975     Delta-E=       -0.000000033437 Rises=F Damp=F AM=F Ri=F Fa=F
 DIIS: error= 2.70D-06 at cycle   5 NSaved=   5.
 NSaved= 5 IEnMin= 5 EnMin= -76.4057171388975     IErMin= 5 ErrMin= 2.70D-06
 ErrMax= 2.70D-06  0.00D+00 EMaxC= 1.00D+00 BMatC= 6.58D-11 BMatP= 6.19D-09
 Rises=F IDIUse=1 WtCom= 1.00D+00 WtEn= 0.00D+00
 Coeff-Com: -0.395D-04 0.177D-02 0.136D-02-0.868D-01 0.108D+01
 Coeff:     -0.395D-04 0.177D-02 0.136D-02-0.868D-01 0.108D+01
 Gap=     0.459 Goal=     0.100 Shift=    0.000
 RMSDP=1.27D-06 MaxDP=1.44D-05 DE=-3.34D-08 OVMax= 1.72D-05

 Cycle   6  Pass 1  IDiag  1:
 E= -76.4057171392992     Delta-E=       -0.000000000402 Rises=F Damp=F AM=F Ri=F Fa=F
 DIIS: error= 5.27D-07 at cycle   6 NSaved=   6.
 NSaved= 6 IEnMin= 6 EnMin= -76.4057171392992     IErMin= 6 ErrMin= 5.27D-07
 ErrMax= 5.27D-07  0.00D+00 EMaxC= 1.00D+00 BMatC= 2.99D-12 BMatP= 6.58D-11
 Rises=F IDIUse=1 WtCom= 1.00D+00 WtEn= 0.00D+00
 Coeff-Com: -0.350D-03 0.406D-02 0.297D-02-0.494D-01 0.799D-01 0.963D+00
 Coeff:     -0.350D-03 0.406D-02 0.297D-02-0.494D-01 0.799D-01 0.963D+00
 Gap=     0.459 Goal=     0.100 Shift=    0.000
 RMSDP=2.08D-07 MaxDP=2.19D-06 DE=-4.02D-10 OVMax= 3.12D-06

 Cycle   7  Pass 1  IDiag  1:
 E= -76.4057171393141     Delta-E=       -0.000000000015 Rises=F Damp=F AM=F Ri=F Fa=F
 DIIS: error= 7.78D-08 at cycle   7 NSaved=   7.
 NSaved= 7 IEnMin= 7 EnMin= -76.4057171393141     IErMin= 7 ErrMin= 7.78D-08
 ErrMax= 7.78D-08  0.00D+00 EMaxC= 1.00D+00 BMatC= 6.39D-14 BMatP= 2.99D-12
 Rises=F IDIUse=1 WtCom= 1.00D+00 WtEn= 0.00D+00
 Coeff-Com:  0.516D-04-0.622D-03-0.465D-03 0.933D-02-0.461D-01-0.122D+00
 Coeff-Com:  0.116D+01
 Coeff:      0.516D-04-0.622D-03-0.465D-03 0.933D-02-0.461D-01-0.122D+00
 Coeff:      0.116D+01
 Gap=     0.459 Goal=     0.100 Shift=    0.000
 RMSDP=5.68D-08 MaxDP=6.39D-07 DE=-1.49D-11 OVMax= 6.64D-07

 Cycle   8  Pass 1  IDiag  1:
 E= -76.4057171393147     Delta-E=       -0.000000000001 Rises=F Damp=F AM=F Ri=F Fa=F
 DIIS: error= 3.50D-09 at cycle   8 NSaved=   8.
 NSaved= 8 IEnMin= 8 EnMin= -76.4057171393147     IErMin= 8 ErrMin= 3.50D-09
 ErrMax= 3.50D-09  0.00D+00 EMaxC= 1.00D+00 BMatC= 1.52D-16 BMatP= 6.39D-14
 Rises=F IDIUse=1 WtCom= 1.00D+00 WtEn= 0.00D+00
 Coeff-Com: -0.972D-06 0.136D-04 0.136D-04-0.269D-03 0.239D-02 0.343D-02
 Coeff-Com: -0.801D-01 0.107D+01
 Coeff:     -0.972D-06 0.136D-04 0.136D-04-0.269D-03 0.239D-02 0.343D-02
 Coeff:     -0.801D-01 0.107D+01
 Gap=     0.459 Goal=     0.100 Shift=    0.000
 RMSDP=2.35D-09 MaxDP=1.79D-08 DE=-5.68D-13 OVMax= 1.95D-08

 SCF Done:  E(RCAM-B3LYP) =  -76.4057171393     A.U. after    8 cycles
            NFock=  8  Conv=0.24D-08     -V/T= 2.0091
 KE=          75.715774 PE=        -198.528208 EE=          37.276245
 Leave Link  502 at Wed Sep  3 17:15:28 2025, MaxMem= 12348030976 cpu:              12.0 elap:               0.3
 (Enter /home/hhratchian/gaussian/gdv-20250101-j30+/gdv/l701.exe)
 ... and contract with generalized density number  0.
 Compute integral first derivatives.
 Leave Link  701 at Wed Sep  3 17:15:28 2025, MaxMem= 12348030976 cpu:               5.0 elap:               0.2
 (Enter /home/hhratchian/gaussian/gdv-20250101-j30+/gdv/l702.exe)
 L702 exits ... SP integral derivatives will be done elsewhere.
 Leave Link  702 at Wed Sep  3 17:15:28 2025, MaxMem= 12348030976 cpu:               0.1 elap:               0.0
 (Enter /home/hhratchian/gaussian/gdv-20250101-j30+/gdv/l703.exe)
 Integral derivatives from FoFJK, PRISM(SPDF).
 Compute integral first derivatives, UseDBF=F ICtDFT=           0.
 Calling FoFJK, ICntrl=      2127 FMM=F ISym2X=1 I1Cent= 0 IOpClX= 0 NMat=1 NMatS=1 NMatT=0.
 FoFJK:  IHMeth= 1 ICntrl=    2127 DoSepK=T KAlg= 0 I1Cent=           0 FoldK=F
 IRaf=         1 NMat=       1 IRICut=       1 DoRegI=T DoRafI=F ISym2E= 1 IDoP0=0 IntGTp=1.
 FoFCou: FMM=F IPFlag=           0 FMFlag=      100000 FMFlg1=         800
         NFxFlg=           0 DoJE=F BraDBF=F KetDBF=F FulRan=T
         wScrn=  0.000000 ICntrl=      2527 IOpCl=  0 I1Cent=           0 NGrid=           0
         NMat0=    1 NMatS0=      1 NMatT0=    0 NMatD0=    1 NMtDS0=    0 NMtDT0=    0
 Petite list used in FoFCou.
 Leave Link  703 at Wed Sep  3 17:15:28 2025, MaxMem= 12348030976 cpu:              13.3 elap:               0.3
 (Enter /home/hhratchian/gaussian/gdv-20250101-j30+/gdv/l716.exe)
 Dipole        =-5.71222169D-17 0.00000000D+00-8.76477222D-01
 ***** Axes restored to original set *****
 -------------------------------------------------------------------
 Center     Atomic                   Forces (Hartrees/Bohr)
 Number     Number              X              Y              Z
 -------------------------------------------------------------------
      1        8           0.000000000   -0.000000000    0.000764629
      2        1           0.000081072    0.000000000   -0.000382315
      3        1          -0.000081072    0.000000000   -0.000382315
 -------------------------------------------------------------------
 Cartesian Forces:  Max     0.000764629 RMS     0.000314489
 Leave Link  716 at Wed Sep  3 17:15:28 2025, MaxMem= 12348030976 cpu:               0.1 elap:               0.0
 (Enter /home/hhratchian/gaussian/gdv-20250101-j30+/gdv/l103.exe)

 GradGradGradGradGradGradGradGradGradGradGradGradGradGradGradGradGradGrad
 Berny optimization.
 Using GEDIIS/GDIIS optimizer.
 FormGI is forming the generalized inverse of G from B-inverse, IUseBI=4.
 NTrRot=    -1 NTRed=     3 NAtoms=     3 NSkip=     0 NRank=     3 IsLin=F EigSml=7.8138D-01
 Internal  Forces:  Max     0.000644762 RMS     0.000396000
 Search for a local minimum.
 Step number   3 out of a maximum of   20
 All quantities printed in internal units (Hartrees-Bohrs-Radians)
 RMS Force = .39600D-03 SwitMx=.10000D-02 MixMth= 2
 Mixed Optimization -- En-DIIS/RFO-DIIS
 Update second derivatives using D2CorX and points    1    2    3
 DE= -2.20D-04 DEPred=-2.05D-04 R= 1.07D+00
 TightC=F SS=  1.41D+00  RLast= 5.76D-02 DXNew= 7.1142D-01 1.7283D-01
 Trust test= 1.07D+00 RLast= 5.76D-02 DXMaxT set to 4.23D-01
 The second derivative matrix:
                          R1        R2        A1
           R1           0.65372
           R2          -0.02153   0.65372
           A1           0.04328   0.04328   0.15433
 ITU=  1  1  0
 Use linear search instead of GDIIS.
     Eigenvalues ---    0.14662   0.63989   0.67525
 RFO step:  Lambda=-7.65205082D-08 EMin= 1.46616333D-01
 Quartic linear search produced a step of -0.07509.
 GrdOpt: GIC=T ITstSp=  0 NP=   3 DidLin=T DidDIS=F IDoGRo=0 IDoRot=0
         ISwap=1 XLin=-0.075 DXMaxT= 0.423
 Iteration  1 RMS(Cart)=  0.00134073 RMS(Int)=  0.00000371
 Iteration  2 RMS(Cart)=  0.00000204 RMS(Int)=  0.00000000
 Iteration  3 RMS(Cart)=  0.00000000 RMS(Int)=  0.00000000
 ClnCor:  largest displacement from symmetrization is 5.55D-16 for atom     3.
 Variable       Old X    -DE/DX   Delta X   Delta X   Delta X     New X
                                 (Linear)    (Quad)   (Total)
    R1        1.82096  -0.00017  -0.00078   0.00022  -0.00056   1.82040
    R2        1.82096  -0.00017  -0.00078   0.00022  -0.00056   1.82040
    A1        1.84955   0.00064   0.00418   0.00023   0.00442   1.85397
         Item               Value     Threshold  Converged?
 Maximum Force            0.000645     0.000450     NO 
 RMS     Force            0.000396     0.000300     NO 
 Maximum Displacement     0.002367     0.001800     NO 
 RMS     Displacement     0.002320     0.001200     NO 
 Predicted change in Energy=-1.543537D-06
 Lowest energy point so far.  Saving SCF results.
 GradGradGradGradGradGradGradGradGradGradGradGradGradGradGradGradGradGrad

 Leave Link  103 at Wed Sep  3 17:15:28 2025, MaxMem= 12348030976 cpu:               1.3 elap:               0.1
 (Enter /home/hhratchian/gaussian/gdv-20250101-j30+/gdv/l202.exe)
                          Input orientation:                          
 ---------------------------------------------------------------------
 Center     Atomic      Atomic             Coordinates (Angstroms)
 Number     Number       Type             X           Y           Z
 ---------------------------------------------------------------------
      1          8           0       -0.000000    0.000000   -0.049296
      2          1           0        0.770469    0.000000    0.528932
      3          1           0       -0.770469   -0.000000    0.528932
 ---------------------------------------------------------------------
                    Distance matrix (angstroms):
                    1          2          3
     1  O    0.000000
     2  H    0.963312   0.000000
     3  H    0.963312   1.540937   0.000000
 Stoichiometry    H2O
 Framework group  C2V[C2(O),SGV(H2)]
 Deg. of freedom     2
 Full point group                 C2V     NOp   4
 RotChk:  IX=0 Diff= 6.91D-16
 Largest Abelian subgroup         C2V     NOp   4
 Largest concise Abelian subgroup C2      NOp   2
                         Standard orientation:                         
 ---------------------------------------------------------------------
 Center     Atomic      Atomic             Coordinates (Angstroms)
 Number     Number       Type             X           Y           Z
 ---------------------------------------------------------------------
      1          8           0        0.000000    0.000000    0.115646
      2          1           0       -0.000000    0.770469   -0.462582
      3          1           0       -0.000000   -0.770469   -0.462582
 ---------------------------------------------------------------------
 Rotational constants (GHZ):         844.4021899         422.3690602         281.5420379
 Leave Link  202 at Wed Sep  3 17:15:28 2025, MaxMem= 12348030976 cpu:               2.7 elap:               0.1
 (Enter /home/hhratchian/gaussian/gdv-20250101-j30+/gdv/local/l301.exe)
 Basis read from rwf:  (6D, 7F)
 No pseudopotential information found on rwf file.
 There are    14 symmetry adapted cartesian basis functions of A1  symmetry.
 There are     2 symmetry adapted cartesian basis functions of A2  symmetry.
 There are     5 symmetry adapted cartesian basis functions of B1  symmetry.
 There are     8 symmetry adapted cartesian basis functions of B2  symmetry.
 There are    14 symmetry adapted basis functions of A1  symmetry.
 There are     2 symmetry adapted basis functions of A2  symmetry.
 There are     5 symmetry adapted basis functions of B1  symmetry.
 There are     8 symmetry adapted basis functions of B2  symmetry.
    29 basis functions,    46 primitive gaussians,    29 cartesian basis functions
     5 alpha electrons        5 beta electrons
       nuclear repulsion energy         9.1327121000 Hartrees.
 IExCor=   2004019 DFT=T Ex+Corr=CAM-B3LYP ScaHFX=  1.000000
 ScaDFX=  1.000000  1.000000  1.000000  0.810000  1.000000  0.000000
 ScaDFX=  0.000000  0.000000  0.000000  0.000000  0.000000  0.000000
 Grid=SuperFine IRanWt=     -1 IRanGd=            0 ICorTp=0 IEDCtl=  2004
 HFx  wShort=  0.000000 wLong=  0.330000 cFull=  0.190000 cShort=  0.000000 cLong=  0.460000
 DFx  wShort=  0.330000 wLong=  0.000000 cFull=  0.350000 cShort=  0.460000 cLong=  0.000000
 NAtoms=    3 NActive=    3 NUniq=    2 SFac= 2.25D+00 NAtFMM=   60 NAOKFM=F Big=F
 Integral buffers will be    131072 words long.
 Raffenetti 2 integral format.
 Two-electron integral symmetry is turned on.
 No density basis found on file    724.
 Leave Link  301 at Wed Sep  3 17:15:28 2025, MaxMem= 12348030976 cpu:               1.3 elap:               0.1
 (Enter /home/hhratchian/gaussian/gdv-20250101-j30+/gdv/l302.exe)
 NPDir=0 NMtPBC=     1 NCelOv=     1 NCel=       1 NClECP=     1 NCelD=      1
         NCelK=      1 NCelE2=     1 NClLst=     1 CellRange=     0.0.
 One-electron integrals computed using PRISM.
 One-electron integral symmetry used in STVInt
 NBasis=    29 RedAO= T EigKep=  1.75D-02  NBF=    14     2     5     8
 NBsUse=    29 1.00D-06 EigRej= -1.00D+00 NBFU=    14     2     5     8
 Precomputing XC quadrature grid using
 IXCGrd=   9 Grid=SuperFine IRanWt=          -1 IRanGd=           0 AccXCQ= 0.00D+00.
 Generated NRdTot=       0 NPtTot=      190865 NUsed=           0 NTot=          64
 NSgBfM=    29    29    29    29    29 MxSgAt=     3 MxSgA2=     3 SizInc=   0.000
 NMBTot=     1445 MaxBatPerAtom=      126 MaxMicBPerAtom=      486 NBfPt=             4644496.
 Leave Link  302 at Wed Sep  3 17:15:28 2025, MaxMem= 12348030976 cpu:               4.9 elap:               0.2
 (Enter /home/hhratchian/gaussian/gdv-20250101-j30+/gdv/l303.exe)
 DipDrv:  MaxL=1.
 Leave Link  303 at Wed Sep  3 17:15:29 2025, MaxMem= 12348030976 cpu:               1.3 elap:               0.1
 (Enter /home/hhratchian/gaussian/gdv-20250101-j30+/gdv/l401.exe)
 Initial guess from the checkpoint file:  "H2O_CAM-B3LYP_6-31+Gdp_q0_m1.chk"
 B after Tr=    -0.000000    0.000000    0.000000
         Rot=    1.000000    0.000000   -0.000000    0.000000 Ang=   0.00 deg.
 AO Guess basis will be translated and rotated to current coordinates.
 JPrj=2 DoOrth=T DoCkMO=T.
 Initial guess orbital symmetries:
       Occupied  (A1) (A1) (B2) (A1) (B1)
       Virtual   (A1) (B2) (A1) (B1) (B2) (A1) (B2) (A1) (B2) (B1)
                 (A1) (A1) (A2) (A1) (B1) (A1) (B2) (B2) (A2) (B1)
                 (A1) (A1) (B2) (A1)
 The electronic state of the initial guess is 1-A1.
 Leave Link  401 at Wed Sep  3 17:15:29 2025, MaxMem= 12348030976 cpu:               2.5 elap:               0.1
 (Enter /home/hhratchian/gaussian/gdv-20250101-j30+/gdv/local/l502.exe)
 Keep R1 ints in memory in symmetry-blocked form, NReq=48859339.
 FoFCou: FMM=F IPFlag=           0 FMFlag=           0 FMFlg1=           0
         NFxFlg=           0 DoJE=F BraDBF=F KetDBF=F FulRan=T
         wScrn=  0.000000 ICntrl=       600 IOpCl=  0 I1Cent=           0 NGrid=           0
         NMat0=    1 NMatS0=    435 NMatT0=    0 NMatD0=    1 NMtDS0=    0 NMtDT0=    0
 Petite list used in FoFCou.
 Closed shell SCF:
 Using DIIS extrapolation, IDIIS=    10.
 NGot= 12348030976 LenX= 12347998860 LenY= 12347997578
 Requested convergence on RMS density matrix=1.00D-08 within 128 cycles.
 Requested convergence on MAX density matrix=1.00D-06.
 Requested convergence on             energy=1.00D-06.
 Level shift goal  0.100 maximum shift  0.100.
 No special actions if energy rises.
 Dynamic level shift is on during FON iterations.
 
  Hrant - CycOpn.
 

 Cycle   1  Pass 1  IDiag  1:
 E= -76.4057178423314    
 DIIS: error= 1.54D-04 at cycle   1 NSaved=   1.
 NSaved= 1 IEnMin= 1 EnMin= -76.4057178423314     IErMin= 1 ErrMin= 1.54D-04
 ErrMax= 1.54D-04  0.00D+00 EMaxC= 1.00D+00 BMatC= 3.08D-07 BMatP= 3.08D-07
 Rises=F IDIUse=1 WtCom= 1.00D+00 WtEn= 0.00D+00
 Coeff-Com:  0.100D+01
 Coeff:      0.100D+01
 Gap=     0.460 Goal=     0.100 Shift=    0.000
 RMSDP=4.47D-05 MaxDP=3.18D-04              OVMax= 4.28D-04

 Cycle   2  Pass 1  IDiag  1:
 E= -76.4057186152825     Delta-E=       -0.000000772951 Rises=F Damp=F AM=F Ri=F Fa=F
 DIIS: error= 4.00D-05 at cycle   2 NSaved=   2.
 NSaved= 2 IEnMin= 2 EnMin= -76.4057186152825     IErMin= 2 ErrMin= 4.00D-05
 ErrMax= 4.00D-05  0.00D+00 EMaxC= 1.00D+00 BMatC= 1.75D-08 BMatP= 3.08D-07
 Rises=F IDIUse=1 WtCom= 1.00D+00 WtEn= 0.00D+00
 Coeff-Com: -0.391D-01 0.104D+01
 Coeff:     -0.391D-01 0.104D+01
 Gap=     0.459 Goal=     0.100 Shift=    0.000
 RMSDP=1.06D-05 MaxDP=8.60D-05 DE=-7.73D-07 OVMax= 1.18D-04

 Cycle   3  Pass 1  IDiag  1:
 E= -76.4057186254911     Delta-E=       -0.000000010209 Rises=F Damp=F AM=F Ri=F Fa=F
 DIIS: error= 4.12D-05 at cycle   3 NSaved=   3.
 NSaved= 3 IEnMin= 3 EnMin= -76.4057186254911     IErMin= 2 ErrMin= 4.00D-05
 ErrMax= 4.12D-05  0.00D+00 EMaxC= 1.00D+00 BMatC= 2.08D-08 BMatP= 1.75D-08
 Rises=F IDIUse=1 WtCom= 1.00D+00 WtEn= 0.00D+00
 Coeff-Com: -0.708D-01 0.577D+00 0.494D+00
 Coeff:     -0.708D-01 0.577D+00 0.494D+00
 Gap=     0.460 Goal=     0.100 Shift=    0.000
 RMSDP=4.12D-06 MaxDP=4.46D-05 DE=-1.02D-08 OVMax= 4.93D-05

 Cycle   4  Pass 1  IDiag  1:
 E= -76.4057186546556     Delta-E=       -0.000000029164 Rises=F Damp=F AM=F Ri=F Fa=F
 DIIS: error= 2.05D-06 at cycle   4 NSaved=   4.
 NSaved= 4 IEnMin= 4 EnMin= -76.4057186546556     IErMin= 4 ErrMin= 2.05D-06
 ErrMax= 2.05D-06  0.00D+00 EMaxC= 1.00D+00 BMatC= 4.07D-11 BMatP= 1.75D-08
 Rises=F IDIUse=1 WtCom= 1.00D+00 WtEn= 0.00D+00
 Coeff-Com:  0.956D-02-0.112D+00-0.577D-01 0.116D+01
 Coeff:      0.956D-02-0.112D+00-0.577D-01 0.116D+01
 Gap=     0.460 Goal=     0.100 Shift=    0.000
 RMSDP=1.18D-06 MaxDP=8.73D-06 DE=-2.92D-08 OVMax= 1.08D-05

 Cycle   5  Pass 1  IDiag  1:
 E= -76.4057186548396     Delta-E=       -0.000000000184 Rises=F Damp=F AM=F Ri=F Fa=F
 DIIS: error= 2.00D-07 at cycle   5 NSaved=   5.
 NSaved= 5 IEnMin= 5 EnMin= -76.4057186548396     IErMin= 5 ErrMin= 2.00D-07
 ErrMax= 2.00D-07  0.00D+00 EMaxC= 1.00D+00 BMatC= 2.79D-13 BMatP= 4.07D-11
 Rises=F IDIUse=1 WtCom= 1.00D+00 WtEn= 0.00D+00
 Coeff-Com: -0.547D-03 0.842D-02 0.440D-02-0.141D+00 0.113D+01
 Coeff:     -0.547D-03 0.842D-02 0.440D-02-0.141D+00 0.113D+01
 Gap=     0.460 Goal=     0.100 Shift=    0.000
 RMSDP=8.88D-08 MaxDP=9.59D-07 DE=-1.84D-10 OVMax= 1.19D-06

 Cycle   6  Pass 1  IDiag  1:
 E= -76.4057186548415     Delta-E=       -0.000000000002 Rises=F Damp=F AM=F Ri=F Fa=F
 DIIS: error= 3.00D-08 at cycle   6 NSaved=   6.
 NSaved= 6 IEnMin= 6 EnMin= -76.4057186548415     IErMin= 6 ErrMin= 3.00D-08
 ErrMax= 3.00D-08  0.00D+00 EMaxC= 1.00D+00 BMatC= 1.03D-14 BMatP= 2.79D-13
 Rises=F IDIUse=1 WtCom= 1.00D+00 WtEn= 0.00D+00
 Coeff-Com: -0.258D-03 0.311D-02 0.166D-02-0.377D-01 0.684D-01 0.965D+00
 Coeff:     -0.258D-03 0.311D-02 0.166D-02-0.377D-01 0.684D-01 0.965D+00
 Gap=     0.460 Goal=     0.100 Shift=    0.000
 RMSDP=1.24D-08 MaxDP=1.27D-07 DE=-1.88D-12 OVMax= 1.90D-07

 Cycle   7  Pass 1  IDiag  1:
 E= -76.4057186548416     Delta-E=       -0.000000000000 Rises=F Damp=F AM=F Ri=F Fa=F
 DIIS: error= 5.80D-09 at cycle   7 NSaved=   7.
 NSaved= 7 IEnMin= 7 EnMin= -76.4057186548416     IErMin= 7 ErrMin= 5.80D-09
 ErrMax= 5.80D-09  0.00D+00 EMaxC= 1.00D+00 BMatC= 3.32D-16 BMatP= 1.03D-14
 Rises=F IDIUse=1 WtCom= 1.00D+00 WtEn= 0.00D+00
 Coeff-Com:  0.472D-04-0.613D-03-0.315D-03 0.922D-02-0.564D-01-0.691D-01
 Coeff-Com:  0.112D+01
 Coeff:      0.472D-04-0.613D-03-0.315D-03 0.922D-02-0.564D-01-0.691D-01
 Coeff:      0.112D+01
 Gap=     0.460 Goal=     0.100 Shift=    0.000
 RMSDP=3.96D-09 MaxDP=4.50D-08 DE=-1.28D-13 OVMax= 4.51D-08

 SCF Done:  E(RCAM-B3LYP) =  -76.4057186548     A.U. after    7 cycles
            NFock=  7  Conv=0.40D-08     -V/T= 2.0091
 KE=          75.716266 PE=        -198.533220 EE=          37.278523
 Leave Link  502 at Wed Sep  3 17:15:29 2025, MaxMem= 12348030976 cpu:              10.2 elap:               0.3
 (Enter /home/hhratchian/gaussian/gdv-20250101-j30+/gdv/l701.exe)
 ... and contract with generalized density number  0.
 Compute integral first derivatives.
 Leave Link  701 at Wed Sep  3 17:15:29 2025, MaxMem= 12348030976 cpu:               5.1 elap:               0.1
 (Enter /home/hhratchian/gaussian/gdv-20250101-j30+/gdv/l702.exe)
 L702 exits ... SP integral derivatives will be done elsewhere.
 Leave Link  702 at Wed Sep  3 17:15:29 2025, MaxMem= 12348030976 cpu:               1.3 elap:               0.1
 (Enter /home/hhratchian/gaussian/gdv-20250101-j30+/gdv/l703.exe)
 Integral derivatives from FoFJK, PRISM(SPDF).
 Compute integral first derivatives, UseDBF=F ICtDFT=           0.
 Calling FoFJK, ICntrl=      2127 FMM=F ISym2X=1 I1Cent= 0 IOpClX= 0 NMat=1 NMatS=1 NMatT=0.
 FoFJK:  IHMeth= 1 ICntrl=    2127 DoSepK=T KAlg= 0 I1Cent=           0 FoldK=F
 IRaf=         1 NMat=       1 IRICut=       1 DoRegI=T DoRafI=F ISym2E= 1 IDoP0=0 IntGTp=1.
 FoFCou: FMM=F IPFlag=           0 FMFlag=      100000 FMFlg1=         800
         NFxFlg=           0 DoJE=F BraDBF=F KetDBF=F FulRan=T
         wScrn=  0.000000 ICntrl=      2527 IOpCl=  0 I1Cent=           0 NGrid=           0
         NMat0=    1 NMatS0=      1 NMatT0=    0 NMatD0=    1 NMtDS0=    0 NMtDT0=    0
 Petite list used in FoFCou.
 Leave Link  703 at Wed Sep  3 17:15:29 2025, MaxMem= 12348030976 cpu:               9.6 elap:               0.3
 (Enter /home/hhratchian/gaussian/gdv-20250101-j30+/gdv/l716.exe)
 Dipole        =-5.72282803D-17 1.33226763D-15-8.74695215D-01
 ***** Axes restored to original set *****
 -------------------------------------------------------------------
 Center     Atomic                   Forces (Hartrees/Bohr)
 Number     Number              X              Y              Z
 -------------------------------------------------------------------
      1        8           0.000000000   -0.000000000   -0.000011288
      2        1           0.000010190    0.000000000    0.000005644
      3        1          -0.000010190    0.000000000    0.000005644
 -------------------------------------------------------------------
 Cartesian Forces:  Max     0.000011288 RMS     0.000006657
 Leave Link  716 at Wed Sep  3 17:15:29 2025, MaxMem= 12348030976 cpu:               0.1 elap:               0.0
 (Enter /home/hhratchian/gaussian/gdv-20250101-j30+/gdv/l103.exe)

 GradGradGradGradGradGradGradGradGradGradGradGradGradGradGradGradGradGrad
 Berny optimization.
 Using GEDIIS/GDIIS optimizer.
 FormGI is forming the generalized inverse of G from B-inverse, IUseBI=4.
 NTrRot=    -1 NTRed=     3 NAtoms=     3 NSkip=     0 NRank=     3 IsLin=F EigSml=7.8253D-01
 Internal  Forces:  Max     0.000011538 RMS     0.000009570
 Search for a local minimum.
 Step number   4 out of a maximum of   20
 All quantities printed in internal units (Hartrees-Bohrs-Radians)
 RMS Force = .95702D-05 SwitMx=.10000D-02 MixMth= 2
 Mixed Optimization -- En-DIIS/RFO-DIIS
 Swapping is turned off.
 Update second derivatives using D2CorX and points    1    2    3    4
 DE= -1.52D-06 DEPred=-1.54D-06 R= 9.82D-01
 TightC=F SS=  1.41D+00  RLast= 4.49D-03 DXNew= 7.1142D-01 1.3461D-02
 Trust test= 9.82D-01 RLast= 4.49D-03 DXMaxT set to 4.23D-01
 The second derivative matrix:
                          R1        R2        A1
           R1           0.65899
           R2          -0.01626   0.65899
           A1           0.04151   0.04151   0.15587
 ITU=  1  1  1  0
     Eigenvalues ---    0.14889   0.64971   0.67525
 En-DIIS/RFO-DIIS/Sim-DIIS IScMMF=       -3 using points:     4    3
 RFO step:  Lambda= 0.00000000D+00.
 NNeg= 0 NGDIIS= 2 SimSw=  2.50D-01 Rises=F DC= -1.52D-06 SmlDif=  1.00D-05
 NRisDI= 0 DoIntr=F SqrtH=F CThrHd= 10.0 CDAdj=  3.0
 RMS Error=  0.1517897410D-04 NUsed= 2 OKEnD=F EnDIS=F
 InvSVX:  RCond= 5.03D-06 Info=           0 Equed=N FErr=  8.90D-16 BErr=  1.05D-16
 DidBck=FF Rises=F RFO-DIIS coefs:    1.00111   -0.00111
 GrdOpt: GIC=T ITstSp=  0 NP=   4 DidLin=F DidDIS=T IDoGRo=0 IDoRot=0
         ISwap=0 XLin= 0.000 DXMaxT= 0.423
 Iteration  1 RMS(Cart)=  0.00000903 RMS(Int)=  0.00000000
 Iteration  2 RMS(Cart)=  0.00000000 RMS(Int)=  0.00000000
 ClnCor:  largest displacement from symmetrization is 2.96D-15 for atom     3.
 Variable       Old X    -DE/DX   Delta X   Delta X   Delta X     New X
                                 (Linear)    (Quad)   (Total)
    R1        1.82040   0.00001  -0.00000   0.00002   0.00002   1.82041
    R2        1.82040   0.00001  -0.00000   0.00002   0.00002   1.82041
    A1        1.85397   0.00000   0.00000   0.00000   0.00001   1.85397
         Item               Value     Threshold  Converged?
 Maximum Force            0.000012     0.000450     YES
 RMS     Force            0.000010     0.000300     YES
 Maximum Displacement     0.000019     0.001800     YES
 RMS     Displacement     0.000016     0.001200     YES
 Predicted change in Energy=-2.138926D-10
 Optimization completed.
    -- Stationary point found.
                           ----------------------------
                           !   Optimized Parameters   !
                           ! (Angstroms and Degrees)  !
 --------------------------                            --------------------------
 ! Name  Definition              Value          Derivative Info.                !
 --------------------------------------------------------------------------------
 ! R1    R(1,2)                  0.9633         -DE/DX =    0.0                 !
 ! R2    R(1,3)                  0.9633         -DE/DX =    0.0                 !
 ! A1    A(2,1,3)              106.2244         -DE/DX =    0.0                 !
 --------------------------------------------------------------------------------
 Lowest energy point so far.  Saving SCF results.
 Largest change from initial coordinates is atom    1       0.027 Angstoms.
 GradGradGradGradGradGradGradGradGradGradGradGradGradGradGradGradGradGrad

 Leave Link  103 at Wed Sep  3 17:15:30 2025, MaxMem= 12348030976 cpu:               1.5 elap:               0.1
 (Enter /home/hhratchian/gaussian/gdv-20250101-j30+/gdv/l202.exe)
                          Input orientation:                          
 ---------------------------------------------------------------------
 Center     Atomic      Atomic             Coordinates (Angstroms)
 Number     Number       Type             X           Y           Z
 ---------------------------------------------------------------------
      1          8           0       -0.000000    0.000000   -0.049296
      2          1           0        0.770469    0.000000    0.528932
      3          1           0       -0.770469   -0.000000    0.528932
 ---------------------------------------------------------------------
                    Distance matrix (angstroms):
                    1          2          3
     1  O    0.000000
     2  H    0.963312   0.000000
     3  H    0.963312   1.540937   0.000000
 Stoichiometry    H2O
 Framework group  C2V[C2(O),SGV(H2)]
 Deg. of freedom     2
 Full point group                 C2V     NOp   4
 RotChk:  IX=0 Diff= 1.17D-15
 Largest Abelian subgroup         C2V     NOp   4
 Largest concise Abelian subgroup C2      NOp   2
                         Standard orientation:                         
 ---------------------------------------------------------------------
 Center     Atomic      Atomic             Coordinates (Angstroms)
 Number     Number       Type             X           Y           Z
 ---------------------------------------------------------------------
      1          8           0        0.000000   -0.000000    0.115646
      2          1           0       -0.000000    0.770469   -0.462582
      3          1           0       -0.000000   -0.770469   -0.462582
 ---------------------------------------------------------------------
 Rotational constants (GHZ):         844.4021899         422.3690602         281.5420379
 Leave Link  202 at Wed Sep  3 17:15:30 2025, MaxMem= 12348030976 cpu:               1.5 elap:               0.0
 (Enter /home/hhratchian/gaussian/gdv-20250101-j30+/gdv/l601.exe)
 Copying SCF densities to generalized density rwf, IOpCl= 0 IROHF=0.
 
 **********************************************************************
 
               Population analysis using the SCF Density.
 
 **********************************************************************
 
 Orbital symmetries:
       Occupied  (A1) (A1) (B2) (A1) (B1)
       Virtual   (A1) (B2) (A1) (B1) (B2) (A1) (B2) (A1) (B2) (B1)
                 (A1) (A1) (A2) (A1) (B1) (A1) (B2) (B2) (A2) (B1)
                 (A1) (A1) (B2) (A1)
 The electronic state is 1-A1.
 Alpha  occ. eigenvalues --      -19.24105      -1.10090      -0.61152      -0.46131      -0.38968
 Alpha virt. eigenvalues --        0.06987       0.15598       0.19240       0.19383       0.25499
 Alpha virt. eigenvalues --        0.28934       0.96886       1.05504       1.15138       1.17903
 Alpha virt. eigenvalues --        1.19094       1.29359       1.57424       1.61148       1.70480
 Alpha virt. eigenvalues --        2.30808       2.31529       2.58190       2.71415       2.72046
 Alpha virt. eigenvalues --        3.10472       3.39660       3.58581       3.99603
          Condensed to atoms (all electrons):
               1          2          3
     1  O    8.149630   0.286075   0.286075
     2  H    0.286075   0.377546  -0.024512
     3  H    0.286075  -0.024512   0.377546
 Mulliken charges:
               1
     1  O   -0.721781
     2  H    0.360890
     3  H    0.360890
 Sum of Mulliken charges=  -0.00000
 Mulliken charges with hydrogens summed into heavy atoms:
               1
     1  O   -0.000000
 Electronic spatial extent (au):  <R**2>=             20.1370
 Charge=             -0.0000 electrons
 Dipole moment (field-independent basis, Debye):
    X=             -0.0000    Y=             -0.0000    Z=             -2.2233  Tot=              2.2233
 Quadrupole moment (field-independent basis, Debye-Ang):
   XX=             -7.9003   YY=             -4.3502   ZZ=             -6.5624
   XY=              0.0000   XZ=              0.0000   YZ=              0.0000
 Traceless Quadrupole moment (field-independent basis, Debye-Ang):
   XX=             -1.6293   YY=              1.9208   ZZ=             -0.2915
   XY=              0.0000   XZ=              0.0000   YZ=              0.0000
 Octapole moment (field-independent basis, Debye-Ang**2):
  XXX=              0.0000  YYY=             -0.0000  ZZZ=             -1.6491  XYY=             -0.0000
  XXY=             -0.0000  XXZ=             -0.4885  XZZ=             -0.0000  YZZ=             -0.0000
  YYZ=             -1.4381  XYZ=             -0.0000
 Hexadecapole moment (field-independent basis, Debye-Ang**3):
 XXXX=             -7.9856 YYYY=             -6.4700 ZZZZ=             -8.1765 XXXY=             -0.0000
 XXXZ=             -0.0000 YYYX=              0.0000 YYYZ=              0.0000 ZZZX=             -0.0000
 ZZZY=              0.0000 XXYY=             -2.7043 XXZZ=             -2.7451 YYZZ=             -2.1273
 XXYZ=              0.0000 YYXZ=              0.0000 ZZXY=              0.0000
 N-N=           9.132712 E-N=        -198.533220  KE=          75.716266
 Symmetry A1   KE=          67.636461
 Symmetry A2   KE=          -0.000000
 Symmetry B1   KE=           4.461822
 Symmetry B2   KE=           3.617983
 No NMR shielding tensors so no spin-rotation constants.
 Leave Link  601 at Wed Sep  3 17:15:30 2025, MaxMem= 12348030976 cpu:               4.3 elap:               0.1
 (Enter /home/hhratchian/gaussian/gdv-20250101-j30+/gdv/local/l9999.exe)
 Unable to Open any file for archive entry.
 1\1\GINC-HMNODE009\FOpt\RCAM-B3LYP\Gen\H2O1\AABOUTAKA\03-Sep-2025\0\\#
 p CAM-B3LYP guess=read chkbasis geom=allcheck Opt Freq SCF=(fermi, nov
 aracc) int=superfinegrid\\H2O — CAM-B3LYP/6-31+G(d,p) q=0 m=1 [1/3: 
 Stability]\\0,1\O,0.,0.,-0.0492959455\H,0.770468667,0.,0.5289319728\H,
 -0.770468667,0.,0.5289319728\\Version=ES64L-GDVRevJ.30+\State=1-A1\HF=
 -76.4057187\RMSD=3.963e-09\RMSF=6.657e-06\Dipole=0.,0.,0.8746952\Quadr
 upole=1.4280646,-1.2113649,-0.2166997,0.,0.,0.\PG=C02V [C2(O1),SGV(H2)
 ]\\@
 The archive entry for this job was punched.


 IT IS NOT EASY TO DESCRIBE
     THE SEA WITH THE MOUTH

                   -- KOKYU
 Leave Link 9999 at Wed Sep  3 17:15:30 2025, MaxMem= 12348030976 cpu:               1.3 elap:               0.1
 Job cpu time:       0 days  0 hours  3 minutes 19.2 seconds.
 Elapsed time:       0 days  0 hours  0 minutes  9.2 seconds.
 File lengths (MBytes):  RWF=     38 Int=      0 D2E=      0 Chk=     17 Scr=      2
 Normal termination of Gaussian DV at Wed Sep  3 17:15:30 2025.
 (Enter /home/hhratchian/gaussian/gdv-20250101-j30+/gdv/local/l1.exe)
 Link1:  Proceeding to internal job step number  2.
 ----------------------------------------------------------------------
 #P Geom=AllCheck Guess=TCheck SCRF=Check GenChk RCAM-B3LYP/ChkBas Freq
 ----------------------------------------------------------------------
 1/10=4,29=7,30=1,38=1,40=1/1,3;
 2/12=2/2;
 3/5=7,6=2,11=2,14=-4,25=1,30=1,67=1,70=2,71=2,74=-40,75=-7,82=7,116=1,140=1,187=7/1,2,3;
 4/5=101/1;
 5/5=2,22=13,38=6,98=1/2;
 8/6=4,10=90,11=11/1;
 11/6=1,8=1,9=11,15=111,16=1/1,2,10;
 10/6=1/2;
 6/7=2,8=2,9=2,10=2,28=1/1;
 7/8=1,10=1,25=1/1,2,3,16;
 1/10=4,30=1/3;
 99//99;
 Leave Link    1 at Wed Sep  3 17:15:30 2025, MaxMem= 12348030976 cpu:               0.1 elap:               0.0
 (Enter /home/hhratchian/gaussian/gdv-20250101-j30+/gdv/local/l101.exe)
 
  Hrant - IAPOps =                         0
  Hrant - IAPOp1 =                         0
  Hrant - IAPOp2 =                         0
  Hrant - DoAP   =   F
 
 Structure from the checkpoint file:  "H2O_CAM-B3LYP_6-31+Gdp_q0_m1.chk"
 ------------------------------------------------------
 H2O — CAM-B3LYP/6-31+G(d,p) q=0 m=1 [1/3: Stability]
 ------------------------------------------------------
 Charge =     0 Multiplicity =     1
 Redundant internal coordinates found in file.  (GICs).
 O,0,0.,0.,-0.0492959455
 H,0,0.770468667,0.,0.5289319728
 H,0,-0.770468667,0.,0.5289319728
 
 Recover connectivity data from disk.
 Reading GIC definitions from chk.
 Skipping GIC derivative info from chk, if any.
 No input coordinate modifications requested.
 Forming B-matrix definitions.
 Forming B-matrix derivative definitions.
 ITRead=  0  0  0
 MicOpt= -1 -1 -1
 NAtoms=      3 NQM=        3 NQMF=       0 NMMI=      0 NMMIF=      0
                NMic=       0 NMicF=      0.
                    Isotopes and Nuclear Properties:
 (Nuclear quadrupole moments (NQMom) in fm**2, nuclear magnetic moments (NMagM)
  in nuclear magnetons)

  Atom         1           2           3
 IAtWgt=          16           1           1
 AtmWgt=  15.9949146   1.0078250   1.0078250
 NucSpn=           0           1           1
 AtZEff=    5.600000    1.000000    1.000000
 NQMom=    0.0000000   0.0000000   0.0000000
 NMagM=    0.0000000   2.7928460   2.7928460
 AtZNuc=   8.0000000   1.0000000   1.0000000
 Leave Link  101 at Wed Sep  3 17:15:30 2025, MaxMem= 12348030976 cpu:               1.5 elap:               0.3
 (Enter /home/hhratchian/gaussian/gdv-20250101-j30+/gdv/l103.exe)

 GradGradGradGradGradGradGradGradGradGradGradGradGradGradGradGradGradGrad
 Berny optimization.
 Initialization pass.
                           ----------------------------
                           !    Initial Parameters    !
                           ! (Angstroms and Degrees)  !
 --------------------------                            --------------------------
 ! Name  Definition              Value          Derivative Info.                !
 --------------------------------------------------------------------------------
 ! R1    R(1,2)                  0.9633         calculate D2E/DX2 analytically  !
 ! R2    R(1,3)                  0.9633         calculate D2E/DX2 analytically  !
 ! A1    A(2,1,3)              106.2244         calculate D2E/DX2 analytically  !
 --------------------------------------------------------------------------------
 Trust Radius=3.00D-01 FncErr=1.00D-07 GrdErr=1.00D-07 EigMax=2.50D+02 EigMin=1.00D-04
 Number of steps in this run=      2 maximum allowed number of steps=      2.
 GradGradGradGradGradGradGradGradGradGradGradGradGradGradGradGradGradGrad

 Leave Link  103 at Wed Sep  3 17:15:30 2025, MaxMem= 12348030976 cpu:               0.1 elap:               0.0
 (Enter /home/hhratchian/gaussian/gdv-20250101-j30+/gdv/l202.exe)
                          Input orientation:                          
 ---------------------------------------------------------------------
 Center     Atomic      Atomic             Coordinates (Angstroms)
 Number     Number       Type             X           Y           Z
 ---------------------------------------------------------------------
      1          8           0        0.000000    0.000000   -0.049296
      2          1           0        0.770469    0.000000    0.528932
      3          1           0       -0.770469   -0.000000    0.528932
 ---------------------------------------------------------------------
                    Distance matrix (angstroms):
                    1          2          3
     1  O    0.000000
     2  H    0.963312   0.000000
     3  H    0.963312   1.540937   0.000000
 Stoichiometry    H2O
 Framework group  C2V[C2(O),SGV(H2)]
 Deg. of freedom     2
 Full point group                 C2V     NOp   4
 RotChk:  IX=0 Diff= 6.23D-16
 Largest Abelian subgroup         C2V     NOp   4
 Largest concise Abelian subgroup C2      NOp   2
                         Standard orientation:                         
 ---------------------------------------------------------------------
 Center     Atomic      Atomic             Coordinates (Angstroms)
 Number     Number       Type             X           Y           Z
 ---------------------------------------------------------------------
      1          8           0        0.000000   -0.000000    0.115646
      2          1           0       -0.000000    0.770469   -0.462582
      3          1           0       -0.000000   -0.770469   -0.462582
 ---------------------------------------------------------------------
 Rotational constants (GHZ):         844.4021899         422.3690602         281.5420379
 Leave Link  202 at Wed Sep  3 17:15:30 2025, MaxMem= 12348030976 cpu:               1.5 elap:               0.0
 (Enter /home/hhratchian/gaussian/gdv-20250101-j30+/gdv/local/l301.exe)
 Basis read from chk: "H2O_CAM-B3LYP_6-31+Gdp_q0_m1.chk" (6D, 7F)
 No pseudopotential information found on chk file.
 There are    14 symmetry adapted cartesian basis functions of A1  symmetry.
 There are     2 symmetry adapted cartesian basis functions of A2  symmetry.
 There are     5 symmetry adapted cartesian basis functions of B1  symmetry.
 There are     8 symmetry adapted cartesian basis functions of B2  symmetry.
 There are    14 symmetry adapted basis functions of A1  symmetry.
 There are     2 symmetry adapted basis functions of A2  symmetry.
 There are     5 symmetry adapted basis functions of B1  symmetry.
 There are     8 symmetry adapted basis functions of B2  symmetry.
    29 basis functions,    46 primitive gaussians,    29 cartesian basis functions
     5 alpha electrons        5 beta electrons
       nuclear repulsion energy         9.1327121000 Hartrees.
 IExCor=   2004019 DFT=T Ex+Corr=CAM-B3LYP ScaHFX=  1.000000
 ScaDFX=  1.000000  1.000000  1.000000  0.810000  1.000000  0.000000
 ScaDFX=  0.000000  0.000000  0.000000  0.000000  0.000000  0.000000
 Grid=SuperFine IRanWt=     -1 IRanGd=            0 ICorTp=0 IEDCtl=  2004
 HFx  wShort=  0.000000 wLong=  0.330000 cFull=  0.190000 cShort=  0.000000 cLong=  0.460000
 DFx  wShort=  0.330000 wLong=  0.000000 cFull=  0.350000 cShort=  0.460000 cLong=  0.000000
 NAtoms=    3 NActive=    3 NUniq=    2 SFac= 2.25D+00 NAtFMM=   60 NAOKFM=F Big=F
 Integral buffers will be    131072 words long.
 Raffenetti 2 integral format.
 Two-electron integral symmetry is turned on.
 No density basis found on file 200724.
 Leave Link  301 at Wed Sep  3 17:15:30 2025, MaxMem= 12348030976 cpu:               0.2 elap:               0.0
 (Enter /home/hhratchian/gaussian/gdv-20250101-j30+/gdv/l302.exe)
 NPDir=0 NMtPBC=     1 NCelOv=     1 NCel=       1 NClECP=     1 NCelD=      1
         NCelK=      1 NCelE2=     1 NClLst=     1 CellRange=     0.0.
 One-electron integrals computed using PRISM.
 One-electron integral symmetry used in STVInt
 NBasis=    29 RedAO= T EigKep=  1.75D-02  NBF=    14     2     5     8
 NBsUse=    29 1.00D-06 EigRej= -1.00D+00 NBFU=    14     2     5     8
 Precomputing XC quadrature grid using
 IXCGrd=   9 Grid=SuperFine IRanWt=          -1 IRanGd=           0 AccXCQ= 0.00D+00.
 Generated NRdTot=       0 NPtTot=      190907 NUsed=           0 NTot=          64
 NSgBfM=    29    29    29    29    29 MxSgAt=     3 MxSgA2=     3 SizInc=   0.000
 NMBTot=     1449 MaxBatPerAtom=      126 MaxMicBPerAtom=      484 NBfPt=             4644741.
 Leave Link  302 at Wed Sep  3 17:15:30 2025, MaxMem= 12348030976 cpu:               6.4 elap:               0.2
 (Enter /home/hhratchian/gaussian/gdv-20250101-j30+/gdv/l303.exe)
 DipDrv:  MaxL=1.
 Leave Link  303 at Wed Sep  3 17:15:31 2025, MaxMem= 12348030976 cpu:               1.4 elap:               0.1
 (Enter /home/hhratchian/gaussian/gdv-20250101-j30+/gdv/l401.exe)
 Initial guess from the checkpoint file:  "H2O_CAM-B3LYP_6-31+Gdp_q0_m1.chk"
 B after Tr=    -0.000000   -0.000000    0.000000
         Rot=    1.000000    0.000000    0.000000    0.000000 Ang=   0.00 deg.
 AO Guess basis will be translated and rotated to current coordinates.
 JPrj=2 DoOrth=T DoCkMO=T.
 Initial guess orbital symmetries:
       Occupied  (A1) (A1) (B2) (A1) (B1)
       Virtual   (A1) (B2) (A1) (B1) (B2) (A1) (B2) (A1) (B2) (B1)
                 (A1) (A1) (A2) (A1) (B1) (A1) (B2) (B2) (A2) (B1)
                 (A1) (A1) (B2) (A1)
 The electronic state of the initial guess is 1-A1.
 Leave Link  401 at Wed Sep  3 17:15:31 2025, MaxMem= 12348030976 cpu:               1.5 elap:               0.1
 (Enter /home/hhratchian/gaussian/gdv-20250101-j30+/gdv/local/l502.exe)
 Keep R1 ints in memory in symmetry-blocked form, NReq=48859339.
 FoFCou: FMM=F IPFlag=           0 FMFlag=           0 FMFlg1=           0
         NFxFlg=           0 DoJE=F BraDBF=F KetDBF=F FulRan=T
         wScrn=  0.000000 ICntrl=       600 IOpCl=  0 I1Cent=           0 NGrid=           0
         NMat0=    1 NMatS0=    435 NMatT0=    0 NMatD0=    1 NMtDS0=    0 NMtDT0=    0
 Petite list used in FoFCou.
 Closed shell SCF:
 Using DIIS extrapolation, IDIIS=    10.
 NGot= 12348030976 LenX= 12347998860 LenY= 12347997578
 Requested convergence on RMS density matrix=1.00D-08 within 128 cycles.
 Requested convergence on MAX density matrix=1.00D-06.
 Requested convergence on             energy=1.00D-06.
 Level shift goal  0.100 maximum shift  0.100.
 No special actions if energy rises.
 Dynamic level shift is on during FON iterations.
 
  Hrant - CycOpn.
 

 Cycle   1  Pass 1  IDiag  1:
 E= -76.4057186548414    
 DIIS: error= 2.57D-10 at cycle   1 NSaved=   1.
 NSaved= 1 IEnMin= 1 EnMin= -76.4057186548414     IErMin= 1 ErrMin= 2.57D-10
 ErrMax= 2.57D-10  0.00D+00 EMaxC= 1.00D+00 BMatC= 8.37D-19 BMatP= 8.37D-19
 Rises=F IDIUse=1 WtCom= 1.00D+00 WtEn= 0.00D+00
 Coeff-Com:  0.100D+01
 Coeff:      0.100D+01
 Gap=     0.460 Goal=     0.100 Shift=    0.000
 RMSDP=1.43D-10 MaxDP=1.08D-09              OVMax= 1.25D-09

 SCF Done:  E(RCAM-B3LYP) =  -76.4057186548     A.U. after    1 cycles
            NFock=  1  Conv=0.14D-09     -V/T= 2.0091
 KE=          75.716266 PE=        -198.533220 EE=          37.278523
 Leave Link  502 at Wed Sep  3 17:15:31 2025, MaxMem= 12348030976 cpu:               9.0 elap:               0.2
 (Enter /home/hhratchian/gaussian/gdv-20250101-j30+/gdv/l801.exe)
 DoSCS=F DFT=T ScalE2(SS,OS)=  1.000000  1.000000
 Range of M.O.s used for correlation:     1    29
 NBasis=    29 NAE=     5 NBE=     5 NFC=     0 NFV=     0
 NROrb=     29 NOA=     5 NOB=     5 NVA=    24 NVB=    24
 Leave Link  801 at Wed Sep  3 17:15:31 2025, MaxMem= 12348030976 cpu:               0.1 elap:               0.0
 (Enter /home/hhratchian/gaussian/gdv-20250101-j30+/gdv/l1101.exe)
 Using compressed storage, NAtomX=     3.
 Will process      4 centers per pass.
 Leave Link 1101 at Wed Sep  3 17:15:31 2025, MaxMem= 12348030976 cpu:               4.9 elap:               0.1
 (Enter /home/hhratchian/gaussian/gdv-20250101-j30+/gdv/l1102.exe)
 Symmetrizing basis deriv contribution to polar:
 IMax=3 JMax=2 DiffMx= 0.00D+00
 Leave Link 1102 at Wed Sep  3 17:15:31 2025, MaxMem= 12348030976 cpu:               0.2 elap:               0.0
 (Enter /home/hhratchian/gaussian/gdv-20250101-j30+/gdv/l1110.exe)
 Forming Gx(P) for the SCF density, NAtomX=     3.
 Integral derivatives from FoFJK, PRISM(SPDF).
 Do as many integral derivatives as possible in FoFJK.
 G2DrvN: MDV=   12348030509.
 G2DrvN: will do     4 centers at a time, making    1 passes.
 Calling FoFCou, ICntrl=  3107 FMM=F I1Cent=   0 AccDes= 0.00D+00.
 FoFJK:  IHMeth= 1 ICntrl=    3107 DoSepK=T KAlg= 0 I1Cent=           0 FoldK=F
 IRaf=         1 NMat=       1 IRICut=       1 DoRegI=T DoRafI=F ISym2E= 1 IDoP0=0 IntGTp=1.
 FoFCou: FMM=F IPFlag=           0 FMFlag=      100000 FMFlg1=           0
         NFxFlg=           0 DoJE=F BraDBF=F KetDBF=F FulRan=T
         wScrn=  0.000000 ICntrl=      3507 IOpCl=  0 I1Cent=           0 NGrid=           0
         NMat0=    1 NMatS0=      1 NMatT0=    0 NMatD0=    1 NMtDS0=    0 NMtDT0=    0
 Petite list used in FoFCou.
 End of G2Drv FD prop file    721 does not exist.
 End of G2Drv FD prop file    722 does not exist.
 End of G2Drv FD prop file    788 does not exist.
 End of G2Drv FD prop file    804 does not exist.
 Leave Link 1110 at Wed Sep  3 17:15:31 2025, MaxMem= 12348030976 cpu:              14.5 elap:               0.4
 (Enter /home/hhratchian/gaussian/gdv-20250101-j30+/gdv/l1002.exe)
 Minotr:  Closed shell wavefunction.
          IDoAtm=111
          Direct CPHF calculation.
          Differentiating once with respect to electric field.
                with respect to dipole field.
          Differentiating once with respect to nuclear coordinates.
          Using symmetry in CPHF.
          Requested convergence is 1.0D-08 RMS, and 1.0D-07 maximum.
          Secondary convergence is 1.0D-12 RMS, and 1.0D-12 maximum.
          NewPWx=T KeepS1=F KeepF1=F KeepIn=T MapXYZ=F SortEE=F KeepMc=T.
         1508 words used for storage of precomputed grid.
 Keep R1 ints in memory in symmetry-blocked form, NReq=48503017.
 FoFCou: FMM=F IPFlag=           0 FMFlag=           0 FMFlg1=           0
         NFxFlg=           0 DoJE=F BraDBF=F KetDBF=F FulRan=T
         wScrn=  0.000000 ICntrl=       600 IOpCl=  0 I1Cent=           0 NGrid=           0
         NMat0=    1 NMatS0=    435 NMatT0=    0 NMatD0=    1 NMtDS0=    0 NMtDT0=    0
 Petite list used in FoFCou.
          MDV=   12348030976 using Grid=Fine.
          Solving linear equations simultaneously, MaxMat=       0.
          There are     9 degrees of freedom in the 1st order CPHF.  IDoFFX=4 NUNeed=     9.
      9 vectors produced by pass  0 Test12= 1.33D-15 1.11D-08 XBig12= 2.39D+00 1.06D+00.
 AX will form     9 AO Fock derivatives at one time.
      9 vectors produced by pass  1 Test12= 1.33D-15 1.11D-08 XBig12= 2.72D-01 2.03D-01.
      9 vectors produced by pass  2 Test12= 1.33D-15 1.11D-08 XBig12= 5.86D-03 3.52D-02.
      9 vectors produced by pass  3 Test12= 1.33D-15 1.11D-08 XBig12= 2.66D-05 1.64D-03.
      9 vectors produced by pass  4 Test12= 1.33D-15 1.11D-08 XBig12= 1.36D-07 1.49D-04.
      6 vectors produced by pass  5 Test12= 1.33D-15 1.11D-08 XBig12= 1.22D-10 5.65D-06.
      3 vectors produced by pass  6 Test12= 1.33D-15 1.11D-08 XBig12= 1.33D-13 1.38D-07.
 InvSVY:  IOpt=1 It=  1 EMax= 9.71D-17
 Solved reduced A of dimension    54 with     9 vectors.
 FullF1:  Do perturbations      1 to       9.
 Isotropic polarizability for W=    0.000000        6.94 Bohr**3.
 End of Minotr FD prop file    721 does not exist.
 End of Minotr FD prop file    722 does not exist.
 End of Minotr FD prop file    788 does not exist.
 End of Minotr FD prop file    804 does not exist.
 Leave Link 1002 at Wed Sep  3 17:15:33 2025, MaxMem= 12348030976 cpu:              54.9 elap:               1.1
 (Enter /home/hhratchian/gaussian/gdv-20250101-j30+/gdv/l601.exe)
 Copying SCF densities to generalized density rwf, IOpCl= 0 IROHF=0.
 
 **********************************************************************
 
               Population analysis using the SCF Density.
 
 **********************************************************************
 
 Orbital symmetries:
       Occupied  (A1) (A1) (B2) (A1) (B1)
       Virtual   (A1) (B2) (A1) (B1) (B2) (A1) (B2) (A1) (B2) (B1)
                 (A1) (A1) (A2) (A1) (B1) (A1) (B2) (B2) (A2) (B1)
                 (A1) (A1) (B2) (A1)
 The electronic state is 1-A1.
 Alpha  occ. eigenvalues --      -19.24105      -1.10090      -0.61152      -0.46131      -0.38968
 Alpha virt. eigenvalues --        0.06987       0.15598       0.19240       0.19383       0.25499
 Alpha virt. eigenvalues --        0.28934       0.96886       1.05504       1.15138       1.17903
 Alpha virt. eigenvalues --        1.19094       1.29359       1.57424       1.61148       1.70480
 Alpha virt. eigenvalues --        2.30808       2.31529       2.58190       2.71415       2.72046
 Alpha virt. eigenvalues --        3.10472       3.39660       3.58581       3.99603
          Condensed to atoms (all electrons):
               1          2          3
     1  O    8.149630   0.286075   0.286075
     2  H    0.286075   0.377546  -0.024512
     3  H    0.286075  -0.024512   0.377546
 Mulliken charges:
               1
     1  O   -0.721781
     2  H    0.360890
     3  H    0.360890
 Sum of Mulliken charges=  -0.00000
 Mulliken charges with hydrogens summed into heavy atoms:
               1
     1  O   -0.000000
 APT charges:
               1
     1  O   -0.594738
     2  H    0.297369
     3  H    0.297369
 Sum of APT charges=  -0.00000
 APT charges with hydrogens summed into heavy atoms:
               1
     1  O   -0.000000
 Electronic spatial extent (au):  <R**2>=             20.1370
 Charge=             -0.0000 electrons
 Dipole moment (field-independent basis, Debye):
    X=             -0.0000    Y=             -0.0000    Z=             -2.2233  Tot=              2.2233
 Quadrupole moment (field-independent basis, Debye-Ang):
   XX=             -7.9003   YY=             -4.3502   ZZ=             -6.5624
   XY=              0.0000   XZ=              0.0000   YZ=              0.0000
 Traceless Quadrupole moment (field-independent basis, Debye-Ang):
   XX=             -1.6293   YY=              1.9208   ZZ=             -0.2915
   XY=              0.0000   XZ=              0.0000   YZ=              0.0000
 Octapole moment (field-independent basis, Debye-Ang**2):
  XXX=              0.0000  YYY=              0.0000  ZZZ=             -1.6491  XYY=             -0.0000
  XXY=             -0.0000  XXZ=             -0.4885  XZZ=             -0.0000  YZZ=             -0.0000
  YYZ=             -1.4381  XYZ=             -0.0000
 Hexadecapole moment (field-independent basis, Debye-Ang**3):
 XXXX=             -7.9856 YYYY=             -6.4700 ZZZZ=             -8.1765 XXXY=             -0.0000
 XXXZ=             -0.0000 YYYX=              0.0000 YYYZ=              0.0000 ZZZX=             -0.0000
 ZZZY=             -0.0000 XXYY=             -2.7043 XXZZ=             -2.7451 YYZZ=             -2.1273
 XXYZ=             -0.0000 YYXZ=              0.0000 ZZXY=              0.0000
 N-N=           9.132712 E-N=        -198.533220  KE=          75.716266
 Symmetry A1   KE=          67.636461
 Symmetry A2   KE=           0.000000
 Symmetry B1   KE=           4.461822
 Symmetry B2   KE=           3.617983
 No NMR shielding tensors so no spin-rotation constants.
 Leave Link  601 at Wed Sep  3 17:15:33 2025, MaxMem= 12348030976 cpu:               5.5 elap:               0.2
 (Enter /home/hhratchian/gaussian/gdv-20250101-j30+/gdv/l701.exe)
 ... and contract with generalized density number  0.
 Compute integral second derivatives.
 Leave Link  701 at Wed Sep  3 17:15:33 2025, MaxMem= 12348030976 cpu:               8.2 elap:               0.2
 (Enter /home/hhratchian/gaussian/gdv-20250101-j30+/gdv/l702.exe)
 L702 exits ... SP integral derivatives will be done elsewhere.
 Leave Link  702 at Wed Sep  3 17:15:33 2025, MaxMem= 12348030976 cpu:               0.1 elap:               0.0
 (Enter /home/hhratchian/gaussian/gdv-20250101-j30+/gdv/l703.exe)
 Integral derivatives from FoFJK, PRISM(SPDF).
 Compute integral second derivatives, UseDBF=F ICtDFT=           0.
 Calling FoFJK, ICntrl=    100127 FMM=F ISym2X=1 I1Cent= 0 IOpClX= 0 NMat=1 NMatS=1 NMatT=0.
 FoFJK:  IHMeth= 1 ICntrl=  100127 DoSepK=T KAlg= 0 I1Cent=           0 FoldK=F
 IRaf=         1 NMat=       1 IRICut=       1 DoRegI=T DoRafI=F ISym2E= 1 IDoP0=0 IntGTp=1.
 FoFCou: FMM=F IPFlag=           0 FMFlag=      100000 FMFlg1=         800
         NFxFlg=           0 DoJE=F BraDBF=F KetDBF=F FulRan=T
         wScrn=  0.000000 ICntrl=    100527 IOpCl=  0 I1Cent=           0 NGrid=           0
         NMat0=    1 NMatS0=      1 NMatT0=    0 NMatD0=    1 NMtDS0=    0 NMtDT0=    0
 Petite list used in FoFCou.
 Leave Link  703 at Wed Sep  3 17:15:34 2025, MaxMem= 12348030976 cpu:              34.7 elap:               0.7
 (Enter /home/hhratchian/gaussian/gdv-20250101-j30+/gdv/l716.exe)
 Dipole        =-5.72282802D-17-7.34318732D-18-8.74695215D-01
 Polarizability= 6.57375520D+00 2.03861001D-16 7.75376533D+00
                -7.28991181D-13 7.12171294D-12 6.47909444D+00
 Full mass-weighted force constant matrix:
 Low frequencies ---  -14.2481  -13.7762  -13.2904   -0.0023   -0.0022   -0.0018
 Low frequencies --- 1597.5580 3851.2465 3972.3623
 Diagonal vibrational polarizability:
        0.0000000       0.1196326       1.0505952
 Harmonic frequencies (cm**-1), IR intensities (KM/Mole), Raman scattering
 activities (A**4/AMU), depolarization ratios for plane and unpolarized
 incident light, reduced masses (AMU), force constants (mDyne/A),
 and normal coordinates:
                      1                      2                      3
                     A1                     A1                     B2
 Frequencies --   1597.5580              3851.2465              3972.3623
 Red. masses --      1.0839                 1.0441                 1.0836
 Frc consts  --      1.6298                 9.1238                10.0740
 IR Inten    --     97.9618                 9.7284                70.1478
  Atom  AN      X      Y      Z        X      Y      Z        X      Y      Z
     1   8    -0.00   0.00  -0.07     0.00  -0.00   0.05    -0.00  -0.07  -0.00
     2   1     0.00   0.42   0.57     0.00   0.59  -0.39     0.00   0.56  -0.42
     3   1     0.00  -0.42   0.57    -0.00  -0.59  -0.39     0.00   0.56   0.42

 -------------------
 - Thermochemistry -
 -------------------
 Temperature 298.150 Kelvin.  Pressure 1.00000 Atm.
 Atom     1 has atomic number  8 and mass  15.99491
 Atom     2 has atomic number  1 and mass   1.00783
 Atom     3 has atomic number  1 and mass   1.00783
 Molecular mass:    18.01056 amu.
 Principal axes and moments of inertia in atomic units:
                                 1                 2                 3
     Eigenvalues --            2.137300          4.272901          6.410202
           X                  -0.000000          0.000000          1.000000
           Y                   1.000000          0.000000          0.000000
           Z                  -0.000000          1.000000          0.000000
 This molecule is an asymmetric top.
 Rotational symmetry number  2.
 Rotational temperatures (Kelvin)     40.52492    20.27052    13.51189
 Rotational constants (GHZ):         844.40219   422.36906   281.54204
 Zero-point vibrational energy      56351.1 (Joules/Mol)
                                   13.46823 (Kcal/Mol)
 Vibrational temperatures:   2298.53  5541.08  5715.34
          (Kelvin)
 
 Zero-point correction=                           0.021463 (Hartree/Particle)
 Thermal correction to Energy=                    0.024299
 Thermal correction to Enthalpy=                  0.025243
 Thermal correction to Gibbs Free Energy=         0.003822
 Sum of electronic and zero-point Energies=            -76.384256
 Sum of electronic and thermal Energies=               -76.381420
 Sum of electronic and thermal Enthalpies=             -76.380476
 Sum of electronic and thermal Free Energies=          -76.401897
 
                     E (Thermal)             CV                S
                      KCal/Mol        Cal/Mol-Kelvin    Cal/Mol-Kelvin
 Total                   15.248              6.015             45.085
 Electronic               0.000              0.000              0.000
 Translational            0.889              2.981             34.608
 Rotational               0.889              2.981             10.469
 Vibrational             13.470              0.053              0.008
                       Q            Log10(Q)             Ln(Q)
 Total Bot       0.174663D-01         -1.757799         -4.047482
 Total V=0       0.130162D+09          8.114485         18.684293
 Vib (Bot)       0.134249D-09         -9.872090        -22.731327
 Vib (V=0)       0.100045D+01          0.000195          0.000449
 Electronic      0.100000D+01          0.000000          0.000000
 Translational   0.300431D+07          6.477745         14.915559
 Rotational      0.433058D+02          1.636546          3.768286
 
                                        H2O — CAM-B3LYP/6-31+G(d,p) q=0 m=1 [1/
 3: Stability]
                                                             IR Spectrum
 
     3   3                                                                       1                                                   
     9   8                                                                       5                                                   
     7   5                                                                       9                                                   
     2   1                                                                       8                                                   
 
     X   X                                                                       X                                                   
     X   X                                                                       X                                                   
     X                                                                           X                                                   
     X                                                                           X                                                   
     X                                                                           X                                                   
     X                                                                           X                                                   
     X                                                                           X                                                   
     X                                                                           X                                                   
     X                                                                           X                                                   
     X                                                                           X                                                   
     X                                                                           X                                                   
     X                                                                           X                                                   
     X                                                                           X                                                   
     X                                                                           X                                                   
                                                                                 X                                                   
                                                                                 X                                                   
                                                                                 X                                                   
                                                                                 X                                                   
                                                                                 X                                                   
                                                                                 X                                                   
 
 ***** Axes restored to original set *****
 -------------------------------------------------------------------
 Center     Atomic                   Forces (Hartrees/Bohr)
 Number     Number              X              Y              Z
 -------------------------------------------------------------------
      1        8          -0.000000000   -0.000000000   -0.000011288
      2        1           0.000010190   -0.000000000    0.000005644
      3        1          -0.000010190    0.000000000    0.000005644
 -------------------------------------------------------------------
 Cartesian Forces:  Max     0.000011288 RMS     0.000006657
 Force constants in Cartesian coordinates: 
                1             2             3             4             5 
      1  0.712541D+00
      2  0.000000D+00 -0.119656D-04
      3  0.000000D+00  0.000000D+00  0.448192D+00
      4 -0.356270D+00  0.000000D+00 -0.207686D+00  0.383482D+00
      5  0.000000D+00  0.598282D-05  0.000000D+00  0.000000D+00 -0.686275D-05
      6 -0.267380D+00  0.000000D+00 -0.224096D+00  0.237533D+00  0.000000D+00
      7 -0.356270D+00  0.000000D+00  0.207686D+00 -0.272120D-01  0.000000D+00
      8  0.000000D+00  0.598282D-05  0.000000D+00  0.000000D+00  0.000000D+00
      9  0.267380D+00  0.000000D+00 -0.224096D+00 -0.298470D-01  0.000000D+00
                6             7             8             9 
      6  0.212376D+00
      7  0.298470D-01  0.383482D+00
      8  0.000000D+00  0.000000D+00 -0.686275D-05
      9  0.117198D-01 -0.237533D+00  0.000000D+00  0.212376D+00
 FormGI is forming the generalized inverse of G from B-inverse, IUseBI=4.
 NTrRot=    -1 NTRed=     3 NAtoms=     3 NSkip=     0 NRank=     3 IsLin=F EigSml=7.8253D-01
 Force constants in internal coordinates: 
                1             2             3 
      1  0.549906D+00
      2 -0.702877D-02  0.549906D+00
      3  0.287215D-01  0.287215D-01  0.152303D+00
 Leave Link  716 at Wed Sep  3 17:15:34 2025, MaxMem= 12348030976 cpu:               1.4 elap:               0.1
 (Enter /home/hhratchian/gaussian/gdv-20250101-j30+/gdv/l103.exe)

 GradGradGradGradGradGradGradGradGradGradGradGradGradGradGradGradGradGrad
 Berny optimization.
 Internal  Forces:  Max     0.000011538 RMS     0.000009570
 Search for a local minimum.
 Step number   1 out of a maximum of    2
 All quantities printed in internal units (Hartrees-Bohrs-Radians)
 Second derivative matrix not updated -- analytic derivatives used.
 The second derivative matrix:
                          R1        R2        A1
           R1           0.54991
           R2          -0.00703   0.54991
           A1           0.02872   0.02872   0.15230
 ITU=  0
     Eigenvalues ---    0.14812   0.54706   0.55694
 Angle between quadratic step and forces=  11.13 degrees.
 Linear search not attempted -- first point.
 GrdOpt: GIC=T ITstSp=  0 NP=   1 DidLin=F DidDIS=F IDoGRo=0 IDoRot=0
         ISwap=1 XLin= 0.000 DXMaxT= 0.300
 Iteration  1 RMS(Cart)=  0.00001077 RMS(Int)=  0.00000000
 Iteration  2 RMS(Cart)=  0.00000000 RMS(Int)=  0.00000000
 ClnCor:  largest displacement from symmetrization is 5.55D-16 for atom     3.
 Variable       Old X    -DE/DX   Delta X   Delta X   Delta X     New X
                                 (Linear)    (Quad)   (Total)
    R1        1.82040   0.00001   0.00000   0.00002   0.00002   1.82042
    R2        1.82040   0.00001   0.00000   0.00002   0.00002   1.82042
    A1        1.85397   0.00000   0.00000   0.00001   0.00001   1.85398
         Item               Value     Threshold  Converged?
 Maximum Force            0.000012     0.000450     YES
 RMS     Force            0.000010     0.000300     YES
 Maximum Displacement     0.000023     0.001800     YES
 RMS     Displacement     0.000019     0.001200     YES
 Predicted change in Energy=-2.548548D-10
 Optimization completed.
    -- Stationary point found.
                           ----------------------------
                           !   Optimized Parameters   !
                           ! (Angstroms and Degrees)  !
 --------------------------                            --------------------------
 ! Name  Definition              Value          Derivative Info.                !
 --------------------------------------------------------------------------------
 ! R1    R(1,2)                  0.9633         -DE/DX =    0.0                 !
 ! R2    R(1,3)                  0.9633         -DE/DX =    0.0                 !
 ! A1    A(2,1,3)              106.2244         -DE/DX =    0.0                 !
 --------------------------------------------------------------------------------
 GradGradGradGradGradGradGradGradGradGradGradGradGradGradGradGradGradGrad

 Leave Link  103 at Wed Sep  3 17:15:34 2025, MaxMem= 12348030976 cpu:               1.5 elap:               0.1
 (Enter /home/hhratchian/gaussian/gdv-20250101-j30+/gdv/local/l9999.exe)

 ----------------------------------------------------------------------

 Electric dipole moment (input orientation):
 (Debye = 10**-18 statcoulomb cm , SI units = C m)
                  (au)            (Debye)         (10**-30 SI)
   Tot        0.874695D+00      0.222325D+01      0.741598D+01
   x          0.000000D+00      0.000000D+00      0.000000D+00
   y          0.000000D+00      0.000000D+00      0.000000D+00
   z          0.874695D+00      0.222325D+01      0.741598D+01

 Dipole polarizability, Alpha (input orientation).
 (esu units = cm**3 , SI units = C**2 m**2 J**-1)
 Alpha(0;0):
               (au)            (10**-24 esu)      (10**-40 SI)
   iso        0.693554D+01      0.102774D+01      0.114352D+01
   aniso      0.123008D+01      0.182278D+00      0.202812D+00
   xx         0.775377D+01      0.114899D+01      0.127842D+01
   yx         0.000000D+00      0.000000D+00      0.000000D+00
   yy         0.657376D+01      0.974130D+00      0.108387D+01
   zx         0.000000D+00      0.000000D+00      0.000000D+00
   zy         0.000000D+00      0.000000D+00      0.000000D+00
   zz         0.647909D+01      0.960103D+00      0.106826D+01

 ----------------------------------------------------------------------

 Dipole orientation:
     8          0.00000000          0.00000000         -0.09315584
     1          1.45597477          0.00000000          0.99953657
     1         -1.45597477         -0.00000000          0.99953657

 Electric dipole moment (dipole orientation):
 (Debye = 10**-18 statcoulomb cm , SI units = C m)
                  (au)            (Debye)         (10**-30 SI)
   Tot        0.874695D+00      0.222325D+01      0.741598D+01
   x          0.000000D+00      0.000000D+00      0.000000D+00
   y          0.000000D+00      0.000000D+00      0.000000D+00
   z          0.874695D+00      0.222325D+01      0.741598D+01

 Dipole polarizability, Alpha (dipole orientation).
 (esu units = cm**3 , SI units = C**2 m**2 J**-1)
 Alpha(0;0):
               (au)            (10**-24 esu)      (10**-40 SI)
   iso        0.693554D+01      0.102774D+01      0.114352D+01
   aniso      0.123008D+01      0.182278D+00      0.202812D+00
   xx         0.775377D+01      0.114899D+01      0.127842D+01
   yx         0.000000D+00      0.000000D+00      0.000000D+00
   yy         0.657376D+01      0.974130D+00      0.108387D+01
   zx         0.000000D+00      0.000000D+00      0.000000D+00
   zy         0.000000D+00      0.000000D+00      0.000000D+00
   zz         0.647909D+01      0.960103D+00      0.106826D+01

 ----------------------------------------------------------------------
 Unable to Open any file for archive entry.
 1\1\GINC-HMNODE009\Freq\RCAM-B3LYP\Gen\H2O1\AABOUTAKA\03-Sep-2025\0\\#
 P Geom=AllCheck Guess=TCheck SCRF=Check GenChk RCAM-B3LYP/ChkBas Freq\
 \H2O — CAM-B3LYP/6-31+G(d,p) q=0 m=1 [1/3: Stability]\\0,1\O,0.,0.,-
 0.0492959455\H,0.770468667,0.,0.5289319728\H,-0.770468667,0.,0.5289319
 728\\Version=ES64L-GDVRevJ.30+\State=1-A1\HF=-76.4057187\RMSD=1.428e-1
 0\RMSF=6.657e-06\ZeroPoint=0.021463\Thermal=0.0242988\ETot=-76.3814198
 \HTot=-76.3804757\GTot=-76.4018971\Dipole=0.,0.,0.8746952\DipoleDeriv=
 -0.5599189,0.,0.,0.,-0.8004948,0.,0.,0.,-0.4237998,0.2799594,0.,-0.071
 4476,0.,0.4002474,0.,-0.0902749,0.,0.2118999,0.2799594,0.,0.0714476,0.
 ,0.4002474,0.,0.0902749,0.,0.2118999\Polar=7.7537653,0.,6.5737552,0.,0
 .,6.4790944\Quadrupole=1.4280646,-1.2113649,-0.2166997,0.,0.,0.\PG=C02
 V [C2(O1),SGV(H2)]\NImag=0\\0.71254070,0.,-0.00001197,0.,0.,0.44819217
 ,-0.35627035,0.,-0.20768564,0.38348235,0.,0.00000598,0.,0.,-0.00000686
 ,-0.26737957,0.,-0.22409608,0.23753261,0.,0.21237630,-0.35627035,0.,0.
 20768564,-0.02721200,0.,0.02984696,0.38348235,0.,0.00000598,0.,0.,0.00
 000088,0.,0.,-0.00000686,0.26737957,0.,-0.22409608,-0.02984696,0.,0.01
 171979,-0.23753261,0.,0.21237630\\0.,0.,0.00001129,-0.00001019,0.,-0.0
 0000564,0.00001019,0.,-0.00000564\\\@
 The archive entry for this job was punched.


 Children are likely to live up to what you believe of them.
 -- Lady Bird Johnson
 Job cpu time:       0 days  0 hours  2 minutes 30.1 seconds.
 Elapsed time:       0 days  0 hours  0 minutes  3.9 seconds.
 File lengths (MBytes):  RWF=     38 Int=      0 D2E=      0 Chk=     18 Scr=      2
 Normal termination of Gaussian DV at Wed Sep  3 17:15:34 2025.
 Initial command:
 /home/hhratchian/gaussian/gdv-20250101-j30+/gdv/local/l1.exe "/scratch/aaboutaka/1590316/Gau-3241294.inp" -scrdir="/scratch/aaboutaka/1590316/"
 Default is to use a total of  56 processors:
                               56 via shared-memory
                                1 via Linda
 Entering Link 1 = /home/hhratchian/gaussian/gdv-20250101-j30+/gdv/local/l1.exe PID=   3246032.
  
 Copyright (c) 1988-2024, Gaussian, Inc.  All Rights Reserved.
  
 This is the private, development version of
 the Gaussian(R) DV system of programs. It is based on
 the Gaussian(R) 16 system (copyright 2016, Gaussian, Inc.),
 the Gaussian(R) 09 system (copyright 2009, Gaussian, Inc.),
 the Gaussian(R) 03 system (copyright 2003, Gaussian, Inc.),
 the Gaussian(R) 98 system (copyright 1998, Gaussian, Inc.),
 the Gaussian(R) 94 system (copyright 1995, Gaussian, Inc.),
 the Gaussian 92(TM) system (copyright 1992, Gaussian, Inc.),
 the Gaussian 90(TM) system (copyright 1990, Gaussian, Inc.),
 the Gaussian 88(TM) system (copyright 1988, Gaussian, Inc.),
 the Gaussian 86(TM) system (copyright 1986, Carnegie Mellon
 University), and the Gaussian 82(TM) system (copyright 1983,
 Carnegie Mellon University). Gaussian is a federally registered
 trademark of Gaussian, Inc.
  
 This software contains proprietary and confidential information,
 including trade secrets, belonging to Gaussian, Inc.
  
 This software is provided under written license and may be
 used, copied, transmitted, or stored only in accord with that
 written license.
  
 The following legend is applicable only to US Government
 contracts under FAR:
  
                    RESTRICTED RIGHTS LEGEND
  
 Use, reproduction and disclosure by the US Government is
 subject to restrictions as set forth in subparagraphs (a)
 and (c) of the Commercial Computer Software - Restricted
 Rights clause in FAR 52.227-19.
  
 Gaussian, Inc.
 340 Quinnipiac St., Bldg. 40, Wallingford CT 06492
  
  
 ---------------------------------------------------------------
 Warning -- This program may not be used in any manner that
 competes with the business of Gaussian, Inc. or will provide
 assistance to any competitor of Gaussian, Inc.  The licensee
 of this program is prohibited from giving any competitor of
 Gaussian, Inc. access to this program.  By using this program,
 the user acknowledges that Gaussian, Inc. is engaged in the
 business of creating and licensing software in the field of
 computational chemistry and represents and warrants to the
 licensee that it is not a competitor of Gaussian, Inc. and that
 it will not use this program in any manner prohibited above.
 ---------------------------------------------------------------
  

 Cite this work as:
 Gaussian Development Version, Revision J.30+,
 M. J. Frisch, G. W. Trucks, G. Scalmani, J. R. Cheeseman, X. Li, 
 J. Bloino, B. G. Janesko, A. V. Marenich, J. Zheng, F. Lipparini, 
 A. Jenkins, A. Liu, H. Liu, H. B. Schlegel, G. E. Scuseria, 
 M. A. Robb, V. Barone, G. A. Petersson, H. Nakatsuji, B. Mennucci, 
 C. Adamo, N. Rega, M. Caricato, H. P. Hratchian, J. V. Ortiz, 
 F. Pawlowski, A. F. Izmaylov, H. Hu, C. Liao, J. L. Sonnenberg, 
 D. Williams-Young, F. Ding, R. Gomperts, F. Egidi, J. Goings, 
 B. Peng, A. Petrone, T. Henderson, D. Ranasinghe, V. G. Zakrzewski, 
 J. Gao, G. Zheng, W. Liang, M. Hada, M. Ehara, K. Toyota, R. Fukuda, 
 J. Hasegawa, M. Ishida, T. Nakajima, Y. Honda, O. Kitao, H. Nakai, 
 T. Vreven, K. Throssell, J. A. Montgomery, Jr., J. E. Peralta, 
 F. Ogliaro, M. J. Bearpark, J. J. Heyd, E. N. Brothers, K. N. Kudin, 
 V. N. Staroverov, T. A. Keith, R. Kobayashi, J. Normand, 
 K. Raghavachari, A. P. Rendell, J. C. Burant, S. S. Iyengar, 
 M. Cossi, J. M. Millam, M. Klene, R. Cammi, R. L. Martin, O. Farkas, 
 J. B. Foresman, and D. J. Fox, Gaussian, Inc., Wallingford CT, 2024.
 
 *******************************************
 Gaussian DV:  ES64L-GDVRevJ.30+ 18-Dec-2024
                  3-Sep-2025 
 *******************************************
 %chk=H2O_CAM-B3LYP_6-31+Gdp_q0_m1.chk
 ---------------------------------------------------------
 #p CAM-B3LYP stable=opt guess=read chkbasis geom=allcheck
 ---------------------------------------------------------
 1/29=7,38=1,172=1/1;
 2/12=2/2;
 3/5=7,6=2,11=2,14=-4,25=1,30=1,67=1,74=-40,116=-2/1,2,3;
 4/5=1/1;
 5/5=2,38=6/2;
 6/7=2,8=2,9=2,10=2,28=1/1;
 8/6=1,10=90,11=11/1;
 9/8=-3,42=1,46=1/14;
 5/5=2,8=3,17=40,38=6/8(-2);
 6/7=2,8=2,9=2,10=2,28=1/1;
 99/5=1,9=1/99;
 Leave Link    1 at Wed Sep  3 17:15:34 2025, MaxMem=           0 cpu:               1.4 elap:               0.1
 (Enter /home/hhratchian/gaussian/gdv-20250101-j30+/gdv/local/l101.exe)
 
  Hrant - IAPOps =                         0
  Hrant - IAPOp1 =                         0
  Hrant - IAPOp2 =                         0
  Hrant - DoAP   =   F
 
 Structure from the checkpoint file:  "H2O_CAM-B3LYP_6-31+Gdp_q0_m1.chk"
 ------------------------------------------------------
 H2O — CAM-B3LYP/6-31+G(d,p) q=0 m=1 [1/3: Stability]
 ------------------------------------------------------
 Charge =     0 Multiplicity =     1
 Redundant internal coordinates found in file.  (GICs).
 O,0,0.,0.,-0.0492959455
 H,0,0.770468667,0.,0.5289319728
 H,0,-0.770468667,0.,0.5289319728
 
 Recover connectivity data from disk.
 Reading GIC definitions from chk.
 Reading GIC derivative info from chk.
 ITRead=  0  0  0
 MicOpt= -1 -1 -1
                           ----------------------------
                           !    Current Parameters    !
                           ! (Angstroms and Degrees)  !
 --------------------------                            --------------------------
 ! Name  Definition              Value                                          !
 --------------------------------------------------------------------------------
 ! R1    R(1,2)                  0.9633                                         !
 ! R2    R(1,3)                  0.9633                                         !
 ! A1    A(2,1,3)              106.2244                                         !
 --------------------------------------------------------------------------------
 NAtoms=      3 NQM=        3 NQMF=       0 NMMI=      0 NMMIF=      0
                NMic=       0 NMicF=      0.
                    Isotopes and Nuclear Properties:
 (Nuclear quadrupole moments (NQMom) in fm**2, nuclear magnetic moments (NMagM)
  in nuclear magnetons)

  Atom         1           2           3
 IAtWgt=          16           1           1
 AtmWgt=  15.9949146   1.0078250   1.0078250
 NucSpn=           0           1           1
 AtZEff=    5.600000    1.000000    1.000000
 NQMom=    0.0000000   0.0000000   0.0000000
 NMagM=    0.0000000   2.7928460   2.7928460
 AtZNuc=   8.0000000   1.0000000   1.0000000
 Leave Link  101 at Wed Sep  3 17:15:35 2025, MaxMem= 12348030976 cpu:               0.8 elap:               0.2
 (Enter /home/hhratchian/gaussian/gdv-20250101-j30+/gdv/l202.exe)
                          Input orientation:                          
 ---------------------------------------------------------------------
 Center     Atomic      Atomic             Coordinates (Angstroms)
 Number     Number       Type             X           Y           Z
 ---------------------------------------------------------------------
      1          8           0        0.000000    0.000000   -0.049296
      2          1           0        0.770469    0.000000    0.528932
      3          1           0       -0.770469   -0.000000    0.528932
 ---------------------------------------------------------------------
                    Distance matrix (angstroms):
                    1          2          3
     1  O    0.000000
     2  H    0.963312   0.000000
     3  H    0.963312   1.540937   0.000000
 Stoichiometry    H2O
 Framework group  C2V[C2(O),SGV(H2)]
 Deg. of freedom     2
 Full point group                 C2V     NOp   4
 RotChk:  IX=0 Diff= 3.44D-16
 Largest Abelian subgroup         C2V     NOp   4
 Largest concise Abelian subgroup C2      NOp   2
                         Standard orientation:                         
 ---------------------------------------------------------------------
 Center     Atomic      Atomic             Coordinates (Angstroms)
 Number     Number       Type             X           Y           Z
 ---------------------------------------------------------------------
      1          8           0        0.000000   -0.000000    0.115646
      2          1           0       -0.000000    0.770469   -0.462582
      3          1           0       -0.000000   -0.770469   -0.462582
 ---------------------------------------------------------------------
 Rotational constants (GHZ):         844.4021899         422.3690602         281.5420379
 Leave Link  202 at Wed Sep  3 17:15:35 2025, MaxMem= 12348030976 cpu:               1.5 elap:               0.1
 (Enter /home/hhratchian/gaussian/gdv-20250101-j30+/gdv/local/l301.exe)
 Basis read from chk: "H2O_CAM-B3LYP_6-31+Gdp_q0_m1.chk" (6D, 7F)
 No pseudopotential information found on chk file.
 There are    14 symmetry adapted cartesian basis functions of A1  symmetry.
 There are     2 symmetry adapted cartesian basis functions of A2  symmetry.
 There are     5 symmetry adapted cartesian basis functions of B1  symmetry.
 There are     8 symmetry adapted cartesian basis functions of B2  symmetry.
 There are    14 symmetry adapted basis functions of A1  symmetry.
 There are     2 symmetry adapted basis functions of A2  symmetry.
 There are     5 symmetry adapted basis functions of B1  symmetry.
 There are     8 symmetry adapted basis functions of B2  symmetry.
    29 basis functions,    46 primitive gaussians,    29 cartesian basis functions
     5 alpha electrons        5 beta electrons
       nuclear repulsion energy         9.1327121000 Hartrees.
 IExCor=   2004019 DFT=T Ex+Corr=CAM-B3LYP ScaHFX=  1.000000
 ScaDFX=  1.000000  1.000000  1.000000  0.810000  1.000000  0.000000
 ScaDFX=  0.000000  0.000000  0.000000  0.000000  0.000000  0.000000
 Grid=UltraFine IRanWt=     -1 IRanGd=            0 ICorTp=0 IEDCtl=  2004
 HFx  wShort=  0.000000 wLong=  0.330000 cFull=  0.190000 cShort=  0.000000 cLong=  0.460000
 DFx  wShort=  0.330000 wLong=  0.000000 cFull=  0.350000 cShort=  0.460000 cLong=  0.000000
 NAtoms=    3 NActive=    3 NUniq=    2 SFac= 2.25D+00 NAtFMM=   60 NAOKFM=F Big=F
 Integral buffers will be    131072 words long.
 Raffenetti 2 integral format.
 Two-electron integral symmetry is turned on.
 No density basis found on file 200724.
 Leave Link  301 at Wed Sep  3 17:15:35 2025, MaxMem= 12348030976 cpu:               0.1 elap:               0.0
 (Enter /home/hhratchian/gaussian/gdv-20250101-j30+/gdv/l302.exe)
 NPDir=0 NMtPBC=     1 NCelOv=     1 NCel=       1 NClECP=     1 NCelD=      1
         NCelK=      1 NCelE2=     1 NClLst=     1 CellRange=     0.0.
 One-electron integrals computed using PRISM.
 One-electron integral symmetry used in STVInt
 NBasis=    29 RedAO= T EigKep=  1.75D-02  NBF=    14     2     5     8
 NBsUse=    29 1.00D-06 EigRej= -1.00D+00 NBFU=    14     2     5     8
 Precomputing XC quadrature grid using
 IXCGrd=   9 Grid=UltraFine IRanWt=          -1 IRanGd=           0 AccXCQ= 0.00D+00.
 Generated NRdTot=       0 NPtTot=       69788 NUsed=           0 NTot=          64
 NSgBfM=    29    29    29    29    29 MxSgAt=     3 MxSgA2=     3 SizInc=   0.000
 NMBTot=      711 MaxBatPerAtom=       83 MaxMicBPerAtom=      240 NBfPt=             1709640.
 Leave Link  302 at Wed Sep  3 17:15:35 2025, MaxMem= 12348030976 cpu:               5.0 elap:               0.2
 (Enter /home/hhratchian/gaussian/gdv-20250101-j30+/gdv/l303.exe)
 DipDrv:  MaxL=1.
 Leave Link  303 at Wed Sep  3 17:15:35 2025, MaxMem= 12348030976 cpu:               1.4 elap:               0.1
 (Enter /home/hhratchian/gaussian/gdv-20250101-j30+/gdv/l401.exe)
 Initial guess from the checkpoint file:  "H2O_CAM-B3LYP_6-31+Gdp_q0_m1.chk"
 B after Tr=     0.000000   -0.000000   -0.000000
         Rot=    1.000000    0.000000   -0.000000   -0.000000 Ang=   0.00 deg.
 AO Guess basis will be translated and rotated to current coordinates.
 JPrj=2 DoOrth=T DoCkMO=T.
 Initial guess orbital symmetries:
       Occupied  (A1) (A1) (B2) (A1) (B1)
       Virtual   (A1) (B2) (A1) (B1) (B2) (A1) (B2) (A1) (B2) (B1)
                 (A1) (A1) (A2) (A1) (B1) (A1) (B2) (B2) (A2) (B1)
                 (A1) (A1) (B2) (A1)
 The electronic state of the initial guess is 1-A1.
 Leave Link  401 at Wed Sep  3 17:15:35 2025, MaxMem= 12348030976 cpu:               1.6 elap:               0.1
 (Enter /home/hhratchian/gaussian/gdv-20250101-j30+/gdv/local/l502.exe)
 Keep R1 ints in memory in symmetry-blocked form, NReq=48637915.
 FoFCou: FMM=F IPFlag=           0 FMFlag=           0 FMFlg1=           0
         NFxFlg=           0 DoJE=F BraDBF=F KetDBF=F FulRan=T
         wScrn=  0.000000 ICntrl=       600 IOpCl=  0 I1Cent=           0 NGrid=           0
         NMat0=    1 NMatS0=    435 NMatT0=    0 NMatD0=    1 NMtDS0=    0 NMtDT0=    0
 Petite list used in FoFCou.
 Closed shell SCF:
 Using DIIS extrapolation, IDIIS=  1040.
 NGot= 12348030976 LenX= 12347998860 LenY= 12347997578
 Requested convergence on RMS density matrix=1.00D-08 within 128 cycles.
 Requested convergence on MAX density matrix=1.00D-06.
 Requested convergence on             energy=1.00D-06.
 No special actions if energy rises.
 
  Hrant - CycOpn.
 

 Cycle   1  Pass 1  IDiag  1:
 E= -76.4057187328665    
 DIIS: error= 1.35D-08 at cycle   1 NSaved=   1.
 NSaved= 1 IEnMin= 1 EnMin= -76.4057187328665     IErMin= 1 ErrMin= 1.35D-08
 ErrMax= 1.35D-08  0.00D+00 EMaxC= 1.00D-01 BMatC= 1.64D-15 BMatP= 1.64D-15
 Rises=F IDIUse=1 WtCom= 1.00D+00 WtEn= 0.00D+00
 Coeff-Com:  0.100D+01
 Coeff:      0.100D+01
 Gap=     0.460 Goal=   None    Shift=    0.000
 RMSDP=1.26D-09 MaxDP=1.48D-08              OVMax= 1.35D-08

 SCF Done:  E(RCAM-B3LYP) =  -76.4057187329     A.U. after    1 cycles
            NFock=  1  Conv=0.13D-08     -V/T= 2.0091
 KE=          75.716266 PE=        -198.533220 EE=          37.278522
 Leave Link  502 at Wed Sep  3 17:15:35 2025, MaxMem= 12348030976 cpu:               7.4 elap:               0.2
 (Enter /home/hhratchian/gaussian/gdv-20250101-j30+/gdv/l601.exe)
 Copying SCF densities to generalized density rwf, IOpCl= 0 IROHF=0.
 
 **********************************************************************
 
               Population analysis using the SCF Density.
 
 **********************************************************************
 
 Orbital symmetries:
       Occupied  (A1) (A1) (B2) (A1) (B1)
       Virtual   (A1) (B2) (A1) (B1) (B2) (A1) (B2) (A1) (B2) (B1)
                 (A1) (A1) (A2) (A1) (B1) (A1) (B2) (B2) (A2) (B1)
                 (A1) (A1) (B2) (A1)
 The electronic state is 1-A1.
 Alpha  occ. eigenvalues --      -19.24105      -1.10090      -0.61152      -0.46131      -0.38968
 Alpha virt. eigenvalues --        0.06987       0.15598       0.19240       0.19383       0.25499
 Alpha virt. eigenvalues --        0.28934       0.96886       1.05504       1.15138       1.17903
 Alpha virt. eigenvalues --        1.19094       1.29359       1.57424       1.61148       1.70480
 Alpha virt. eigenvalues --        2.30808       2.31529       2.58190       2.71415       2.72046
 Alpha virt. eigenvalues --        3.10472       3.39660       3.58581       3.99603
          Condensed to atoms (all electrons):
               1          2          3
     1  O    8.149630   0.286075   0.286075
     2  H    0.286075   0.377546  -0.024512
     3  H    0.286075  -0.024512   0.377546
 Mulliken charges:
               1
     1  O   -0.721781
     2  H    0.360890
     3  H    0.360890
 Sum of Mulliken charges=  -0.00000
 Mulliken charges with hydrogens summed into heavy atoms:
               1
     1  O   -0.000000
 Electronic spatial extent (au):  <R**2>=             20.1370
 Charge=             -0.0000 electrons
 Dipole moment (field-independent basis, Debye):
    X=             -0.0000    Y=             -0.0000    Z=             -2.2233  Tot=              2.2233
 Quadrupole moment (field-independent basis, Debye-Ang):
   XX=             -7.9003   YY=             -4.3502   ZZ=             -6.5624
   XY=              0.0000   XZ=              0.0000   YZ=              0.0000
 Traceless Quadrupole moment (field-independent basis, Debye-Ang):
   XX=             -1.6293   YY=              1.9208   ZZ=             -0.2915
   XY=              0.0000   XZ=              0.0000   YZ=              0.0000
 Octapole moment (field-independent basis, Debye-Ang**2):
  XXX=              0.0000  YYY=             -0.0000  ZZZ=             -1.6491  XYY=             -0.0000
  XXY=             -0.0000  XXZ=             -0.4885  XZZ=             -0.0000  YZZ=              0.0000
  YYZ=             -1.4381  XYZ=             -0.0000
 Hexadecapole moment (field-independent basis, Debye-Ang**3):
 XXXX=             -7.9856 YYYY=             -6.4700 ZZZZ=             -8.1765 XXXY=             -0.0000
 XXXZ=             -0.0000 YYYX=              0.0000 YYYZ=             -0.0000 ZZZX=             -0.0000
 ZZZY=              0.0000 XXYY=             -2.7043 XXZZ=             -2.7451 YYZZ=             -2.1273
 XXYZ=             -0.0000 YYXZ=              0.0000 ZZXY=              0.0000
 N-N=           9.132712 E-N=        -198.533219  KE=          75.716266
 Symmetry A1   KE=          67.636461
 Symmetry A2   KE=           0.000000
 Symmetry B1   KE=           4.461822
 Symmetry B2   KE=           3.617983
 No NMR shielding tensors so no spin-rotation constants.
 Leave Link  601 at Wed Sep  3 17:15:35 2025, MaxMem= 12348030976 cpu:               5.0 elap:               0.1
 (Enter /home/hhratchian/gaussian/gdv-20250101-j30+/gdv/l801.exe)
 DoSCS=F DFT=T ScalE2(SS,OS)=  1.000000  1.000000
 Range of M.O.s used for correlation:     1    29
 NBasis=    29 NAE=     5 NBE=     5 NFC=     0 NFV=     0
 NROrb=     29 NOA=     5 NOB=     5 NVA=    24 NVB=    24
 Leave Link  801 at Wed Sep  3 17:15:35 2025, MaxMem= 12348030976 cpu:               1.3 elap:               0.1
 (Enter /home/hhratchian/gaussian/gdv-20250101-j30+/gdv/l914.exe)
 RHF ground state
 Doing stability rather than CIS.
 DoSCS=F DFT=T ScalE2(SS,OS)=  1.000000  1.000000
   ScalD2(USS,UOS,TSS,TOS,w)=  1.000000  1.000000  1.000000  1.000000  1.000000
 Keep R1 and R2 ints in memory in symmetry-blocked form, NReq=58362238.
 FoFCou: FMM=F IPFlag=           0 FMFlag=           0 FMFlg1=           0
         NFxFlg=           0 DoJE=F BraDBF=F KetDBF=F FulRan=T
         wScrn=  0.000000 ICntrl=       600 IOpCl=  0 I1Cent=           0 NGrid=           0
         NMat0=    1 NMatS0=    435 NMatT0=    0 NMatD0=    1 NMtDS0=    0 NMtDT0=    0
 Petite list used in FoFCou.
 MDV= 12348030976 DFT=T IDoStb=1 Mixed=T DoRPA=F DoScal=F NonHer=F
 Making orbital integer symmetry assigments:
 Orbital symmetries:
       Occupied  (A1) (A1) (B2) (A1) (B1)
       Virtual   (A1) (B2) (A1) (B1) (B2) (A1) (B2) (A1) (B2) (B1)
                 (A1) (A1) (A2) (A1) (B1) (A1) (B2) (B2) (A2) (B1)
                 (A1) (A1) (B2) (A1)
 The electronic state is 1-A1.
    24 initial guesses have been made.
 Convergence on wavefunction:    0.001000000000000
 Davidson Disk Diagonalization:  ConvIn= 1.00D-03 SkipCon=T Conv= 1.00D-03.
 Max sub-space:   480 initial roots:    24 roots to seek:     1 dimension of matrix:          240
 Iteration     1 Dimension    24 NMult     0 NNew     24
 CISAX will form    24 AO SS matrices at one time.
 NMat=    24 NSing=    12 JSym2X=-1.
 New state      1 was old state      2
 Excitation Energies [eV] at current iteration:
 Root      1 :     7.147875090659153
 Root      2 :     8.409153065536602
 Root      3 :     9.293361887457724
 Root      4 :     9.720918711915676
 Root      5 :    10.412900282647440
 Root      6 :    10.512778220648759
 Root      7 :    10.647053378258894
 Root      8 :    11.236403084218983
 Root      9 :    11.341809966140504
 Root     10 :    11.767149595297017
 Root     11 :    12.550320489125827
 Root     12 :    12.644652670677024
 Root     13 :    12.798559693100254
 Root     14 :    12.826607728644911
 Root     15 :    12.838201591579406
 Root     16 :    13.042961712694463
 Root     17 :    13.186945386418095
 Root     18 :    13.536756493054151
 Root     19 :    13.579088497939180
 Root     20 :    14.140331995850897
 Root     21 :    14.507760130558843
 Root     22 :    14.712526485651606
 Root     23 :    16.823087724057054
 Root     24 :    19.251181635227532
 Iteration     2 Dimension    48 NMult    24 NNew     24
 CISAX will form    24 AO SS matrices at one time.
 NMat=    24 NSing=    12 JSym2X=-1.
 Root      1 not converged, maximum delta is    0.041011140525314
 Excitation Energies [eV] at current iteration:
 Root      1 :     6.967321841265620   Change is   -0.180553249393533
 Root      2 :     8.361838972087988   Change is   -0.047314093448615
 Root      3 :     8.795438441307768   Change is   -0.497923446149956
 Root      4 :     9.482132900919639   Change is   -0.238785810996037
 Root      5 :    10.278092423027415   Change is   -0.368960955231479
 Root      6 :    10.372347659937425   Change is   -0.040552622710016
 Root      7 :    10.394253867556296   Change is   -0.118524353092464
 Root      8 :    10.738847303531561   Change is   -0.602962662608942
 Root      9 :    11.086305771934278   Change is   -0.150097312284705
 Root     10 :    11.726048778111014   Change is   -0.041100817186003
 Root     11 :    12.346769378331325   Change is   -0.451790314768929
 Root     12 :    12.454037311626101   Change is   -0.096283177499726
 Root     13 :    12.495077191277190   Change is   -0.343124400302217
 Root     14 :    12.554778636109289   Change is   -0.089874034567735
 Root     15 :    12.674899418024101   Change is   -0.512045968393994
 Root     16 :    12.790911112292861   Change is   -0.035696616352050
 Root     17 :    12.909459342219282   Change is   -0.133502370475182
 Root     18 :    13.454636945957443   Change is   -0.082119547096708
 Root     19 :    13.549764805889227   Change is   -0.029323692049953
 Root     20 :    13.982395240685250   Change is   -0.157936755165647
 Root     21 :    14.410827127087403   Change is   -0.301699358564204
 Root     22 :    14.426741056727739   Change is   -0.081019073831104
 Root     23 :    14.623920716976857   Change is   -4.627260918250675
 Root     24 :    15.915455821219480   Change is   -0.907631902837572
 Iteration     3 Dimension    54 NMult    48 NNew      6
 CISAX will form     6 AO SS matrices at one time.
 NMat=     6 NSing=     3 JSym2X=-1.
 Root      1 has converged.
 Excitation Energies [eV] at current iteration:
 Root      1 :     6.967068712105362   Change is   -0.000253129160259
 Root      2 :     8.361715893655807   Change is   -0.000123078432179
 Root      3 :     8.742045302194251   Change is   -0.053393139113516
 Root      4 :     9.479226366598377   Change is   -0.002906534321262
 Root      5 :    10.371980796829547   Change is   -0.000366863107878
 Root      6 :    10.383095290411649   Change is   -0.011158577144646
 Convergence achieved on expansion vectors.
 1PDM for each excited state written to RWF  633
 Ground to excited state transition densities written to RWF  633

 ***********************************************************************
 Stability analysis using <AA,BB:AA,BB> singles matrix:
 ***********************************************************************

 Eigenvectors of the stability matrix:
 
 Eigenvector   1:      Triplet-B1   Eigenvalue= 0.2560351  <S**2>=2.000
       5 ->  6         0.69445
       5 -> 11        -0.11654
 The wavefunction is stable under the perturbations considered.
 Leave Link  914 at Wed Sep  3 17:15:36 2025, MaxMem= 12348030976 cpu:              15.1 elap:               0.4
 (Enter /home/hhratchian/gaussian/gdv-20250101-j30+/gdv/l508.exe)
 The wavefunction is already stable.
 Leave Link  508 at Wed Sep  3 17:15:36 2025, MaxMem= 12348030976 cpu:               0.1 elap:               0.0
 (Enter /home/hhratchian/gaussian/gdv-20250101-j30+/gdv/l601.exe)
 Copying SCF densities to generalized density rwf, IOpCl= 0 IROHF=0.
 
 **********************************************************************
 
               Population analysis using the SCF Density.
 
 **********************************************************************
 
 Orbital symmetries:
       Occupied  (A1) (A1) (B2) (A1) (B1)
       Virtual   (A1) (B2) (A1) (B1) (B2) (A1) (B2) (A1) (B2) (B1)
                 (A1) (A1) (A2) (A1) (B1) (A1) (B2) (B2) (A2) (B1)
                 (A1) (A1) (B2) (A1)
 The electronic state is 1-A1.
 Alpha  occ. eigenvalues --      -19.24105      -1.10090      -0.61152      -0.46131      -0.38968
 Alpha virt. eigenvalues --        0.06987       0.15598       0.19240       0.19383       0.25499
 Alpha virt. eigenvalues --        0.28934       0.96886       1.05504       1.15138       1.17903
 Alpha virt. eigenvalues --        1.19094       1.29359       1.57424       1.61148       1.70480
 Alpha virt. eigenvalues --        2.30808       2.31529       2.58190       2.71415       2.72046
 Alpha virt. eigenvalues --        3.10472       3.39660       3.58581       3.99603
          Condensed to atoms (all electrons):
               1          2          3
     1  O    8.149630   0.286075   0.286075
     2  H    0.286075   0.377546  -0.024512
     3  H    0.286075  -0.024512   0.377546
 Mulliken charges:
               1
     1  O   -0.721781
     2  H    0.360890
     3  H    0.360890
 Sum of Mulliken charges=  -0.00000
 Mulliken charges with hydrogens summed into heavy atoms:
               1
     1  O   -0.000000
 Electronic spatial extent (au):  <R**2>=             20.1370
 Charge=             -0.0000 electrons
 Dipole moment (field-independent basis, Debye):
    X=             -0.0000    Y=             -0.0000    Z=             -2.2233  Tot=              2.2233
 Quadrupole moment (field-independent basis, Debye-Ang):
   XX=             -7.9003   YY=             -4.3502   ZZ=             -6.5624
   XY=              0.0000   XZ=              0.0000   YZ=              0.0000
 Traceless Quadrupole moment (field-independent basis, Debye-Ang):
   XX=             -1.6293   YY=              1.9208   ZZ=             -0.2915
   XY=              0.0000   XZ=              0.0000   YZ=              0.0000
 Octapole moment (field-independent basis, Debye-Ang**2):
  XXX=              0.0000  YYY=             -0.0000  ZZZ=             -1.6491  XYY=             -0.0000
  XXY=             -0.0000  XXZ=             -0.4885  XZZ=             -0.0000  YZZ=              0.0000
  YYZ=             -1.4381  XYZ=             -0.0000
 Hexadecapole moment (field-independent basis, Debye-Ang**3):
 XXXX=             -7.9856 YYYY=             -6.4700 ZZZZ=             -8.1765 XXXY=             -0.0000
 XXXZ=             -0.0000 YYYX=              0.0000 YYYZ=             -0.0000 ZZZX=             -0.0000
 ZZZY=              0.0000 XXYY=             -2.7043 XXZZ=             -2.7451 YYZZ=             -2.1273
 XXYZ=             -0.0000 YYXZ=              0.0000 ZZXY=              0.0000
 N-N=           9.132712 E-N=        -198.533219  KE=          75.716266
 Symmetry A1   KE=          67.636461
 Symmetry A2   KE=           0.000000
 Symmetry B1   KE=           4.461822
 Symmetry B2   KE=           3.617983
 No NMR shielding tensors so no spin-rotation constants.
 Leave Link  601 at Wed Sep  3 17:15:36 2025, MaxMem= 12348030976 cpu:               5.3 elap:               0.1
 (Enter /home/hhratchian/gaussian/gdv-20250101-j30+/gdv/local/l9999.exe)
 Unable to Open any file for archive entry.
 1\1\GINC-HMNODE009\Stability\RCAM-B3LYP\Gen\H2O1\AABOUTAKA\03-Sep-2025
 \0\\#p CAM-B3LYP stable=opt guess=read chkbasis geom=allcheck\\H2O —
  CAM-B3LYP/6-31+G(d,p) q=0 m=1 [1/3: Stability]\\0,1\O,0,0.,0.,-0.0492
 959455\H,0,0.770468667,0.,0.5289319728\H,0,-0.770468667,0.,0.528931972
 8\\Version=ES64L-GDVRevJ.30+\State=1-A1\HF=-76.4057187\RMSD=1.258e-09\
 Dipole=0.,0.,0.8746952\Quadrupole=1.4280645,-1.2113649,-0.2166997,0.,0
 .,0.\PG=C02V [C2(O1),SGV(H2)]\\@
 The archive entry for this job was punched.


 YOU KNOW YOU'VE SPOKEN TOO LONG WHEN THE AUDIENCE STOPS LOOKING AT
 THEIR WATCHES AND STARTS SHAKING THEM.
 Job cpu time:       0 days  0 hours  0 minutes 48.1 seconds.
 Elapsed time:       0 days  0 hours  0 minutes  1.7 seconds.
 File lengths (MBytes):  RWF=     30 Int=      0 D2E=      0 Chk=     18 Scr=      2
 Normal termination of Gaussian DV at Wed Sep  3 17:15:36 2025.
