 Set GAUSS_MDEF to "92GB".
 Set GAUSS_PDEF to "56".
 Entering Gaussian System, Link 0=gdv
 Initial command:
 /home/hhratchian/gaussian/gdv-20250101-j30+/gdv/local/l1.exe "/scratch/aaboutaka/1590344/Gau-3814934.inp" -scrdir="/scratch/aaboutaka/1590344/"
 Default is to use a total of  56 processors:
                               56 via shared-memory
                                1 via Linda
 Entering Link 1 = /home/hhratchian/gaussian/gdv-20250101-j30+/gdv/local/l1.exe PID=   3814935.
  
 Copyright (c) 1988-2024, Gaussian, Inc.  All Rights Reserved.
  
 This is the private, development version of
 the Gaussian(R) DV system of programs. It is based on
 the Gaussian(R) 16 system (copyright 2016, Gaussian, Inc.),
 the Gaussian(R) 09 system (copyright 2009, Gaussian, Inc.),
 the Gaussian(R) 03 system (copyright 2003, Gaussian, Inc.),
 the Gaussian(R) 98 system (copyright 1998, Gaussian, Inc.),
 the Gaussian(R) 94 system (copyright 1995, Gaussian, Inc.),
 the Gaussian 92(TM) system (copyright 1992, Gaussian, Inc.),
 the Gaussian 90(TM) system (copyright 1990, Gaussian, Inc.),
 the Gaussian 88(TM) system (copyright 1988, Gaussian, Inc.),
 the Gaussian 86(TM) system (copyright 1986, Carnegie Mellon
 University), and the Gaussian 82(TM) system (copyright 1983,
 Carnegie Mellon University). Gaussian is a federally registered
 trademark of Gaussian, Inc.
  
 This software contains proprietary and confidential information,
 including trade secrets, belonging to Gaussian, Inc.
  
 This software is provided under written license and may be
 used, copied, transmitted, or stored only in accord with that
 written license.
  
 The following legend is applicable only to US Government
 contracts under FAR:
  
                    RESTRICTED RIGHTS LEGEND
  
 Use, reproduction and disclosure by the US Government is
 subject to restrictions as set forth in subparagraphs (a)
 and (c) of the Commercial Computer Software - Restricted
 Rights clause in FAR 52.227-19.
  
 Gaussian, Inc.
 340 Quinnipiac St., Bldg. 40, Wallingford CT 06492
  
  
 ---------------------------------------------------------------
 Warning -- This program may not be used in any manner that
 competes with the business of Gaussian, Inc. or will provide
 assistance to any competitor of Gaussian, Inc.  The licensee
 of this program is prohibited from giving any competitor of
 Gaussian, Inc. access to this program.  By using this program,
 the user acknowledges that Gaussian, Inc. is engaged in the
 business of creating and licensing software in the field of
 computational chemistry and represents and warrants to the
 licensee that it is not a competitor of Gaussian, Inc. and that
 it will not use this program in any manner prohibited above.
 ---------------------------------------------------------------
  

 Cite this work as:
 Gaussian Development Version, Revision J.30+,
 M. J. Frisch, G. W. Trucks, G. Scalmani, J. R. Cheeseman, X. Li, 
 J. Bloino, B. G. Janesko, A. V. Marenich, J. Zheng, F. Lipparini, 
 A. Jenkins, A. Liu, H. Liu, H. B. Schlegel, G. E. Scuseria, 
 M. A. Robb, V. Barone, G. A. Petersson, H. Nakatsuji, B. Mennucci, 
 C. Adamo, N. Rega, M. Caricato, H. P. Hratchian, J. V. Ortiz, 
 F. Pawlowski, A. F. Izmaylov, H. Hu, C. Liao, J. L. Sonnenberg, 
 D. Williams-Young, F. Ding, R. Gomperts, F. Egidi, J. Goings, 
 B. Peng, A. Petrone, T. Henderson, D. Ranasinghe, V. G. Zakrzewski, 
 J. Gao, G. Zheng, W. Liang, M. Hada, M. Ehara, K. Toyota, R. Fukuda, 
 J. Hasegawa, M. Ishida, T. Nakajima, Y. Honda, O. Kitao, H. Nakai, 
 T. Vreven, K. Throssell, J. A. Montgomery, Jr., J. E. Peralta, 
 F. Ogliaro, M. J. Bearpark, J. J. Heyd, E. N. Brothers, K. N. Kudin, 
 V. N. Staroverov, T. A. Keith, R. Kobayashi, J. Normand, 
 K. Raghavachari, A. P. Rendell, J. C. Burant, S. S. Iyengar, 
 M. Cossi, J. M. Millam, M. Klene, R. Cammi, R. L. Martin, O. Farkas, 
 J. B. Foresman, and D. J. Fox, Gaussian, Inc., Wallingford CT, 2024.
 
 *******************************************
 Gaussian DV:  ES64L-GDVRevJ.30+ 18-Dec-2024
                  3-Sep-2025 
 *******************************************
 %chk=H2O_CAM-B3LYP_STO-3G_q0_m1_stab.chk
 ----------------------------------------------------------------------
 #p CAM-B3LYP/STO-3G stable=opt scf=novaracc guess=mix int=superfinegri
 d
 ----------------------------------------------------------------------
 1/37=210000000,38=1,172=1/1;
 2/12=2/2;
 3/6=3,11=2,25=1,30=1,74=-40,75=-7/1,2,3;
 4/13=-1/1;
 5/5=2,38=1/2;
 6/7=2,8=2,9=2,10=2,28=1/1;
 8/6=1,10=90,11=11/1;
 9/8=-3,42=1,46=1/14;
 5/5=2,8=3,17=40,38=1/8(-2);
 6/7=2,8=2,9=2,10=2,28=1/1;
 99/5=1,9=1/99;
 Leave Link    1 at Wed Sep  3 18:23:23 2025, MaxMem=           0 cpu:               0.2 elap:               0.0
 (Enter /home/hhratchian/gaussian/gdv-20250101-j30+/gdv/local/l101.exe)
 
  Hrant - IAPOps =                         0
  Hrant - IAPOp1 =                         0
  Hrant - IAPOp2 =                         0
  Hrant - DoAP   =   F
 
 -------------------------------------------------
 H2O — CAM-B3LYP/STO-3G q=0 m=1 [1/3: Stability]
 -------------------------------------------------
 Symbolic Z-matrix:
 Charge =     0 Multiplicity =     1
 O                     0.        0.        0. 
 H                     0.7586    0.        0.50428 
 H                    -0.7586    0.        0.50428 
 
 ITRead=  0  0  0
 MicOpt= -1 -1 -1
 NAtoms=      3 NQM=        3 NQMF=       0 NMMI=      0 NMMIF=      0
                NMic=       0 NMicF=      0.
                    Isotopes and Nuclear Properties:
 (Nuclear quadrupole moments (NQMom) in fm**2, nuclear magnetic moments (NMagM)
  in nuclear magnetons)

  Atom         1           2           3
 IAtWgt=          16           1           1
 AtmWgt=  15.9949146   1.0078250   1.0078250
 NucSpn=           0           1           1
 AtZEff=   -0.000000   -0.000000   -0.000000
 NQMom=    0.0000000   0.0000000   0.0000000
 NMagM=    0.0000000   2.7928460   2.7928460
 AtZNuc=   8.0000000   1.0000000   1.0000000
 Leave Link  101 at Wed Sep  3 18:23:23 2025, MaxMem= 12348030976 cpu:               0.3 elap:               0.1
 (Enter /home/hhratchian/gaussian/gdv-20250101-j30+/gdv/l202.exe)
                          Input orientation:                          
 ---------------------------------------------------------------------
 Center     Atomic      Atomic             Coordinates (Angstroms)
 Number     Number       Type             X           Y           Z
 ---------------------------------------------------------------------
      1          8           0        0.000000    0.000000    0.000000
      2          1           0        0.758602    0.000000    0.504284
      3          1           0       -0.758602   -0.000000    0.504284
 ---------------------------------------------------------------------
                    Distance matrix (angstroms):
                    1          2          3
     1  O    0.000000
     2  H    0.910922   0.000000
     3  H    0.910922   1.517204   0.000000
 Stoichiometry    H2O
 Framework group  C2V[C2(O),SGV(H2)]
 Deg. of freedom     2
 Full point group                 C2V     NOp   4
 Largest Abelian subgroup         C2V     NOp   4
 Largest concise Abelian subgroup C2      NOp   2
                         Standard orientation:                         
 ---------------------------------------------------------------------
 Center     Atomic      Atomic             Coordinates (Angstroms)
 Number     Number       Type             X           Y           Z
 ---------------------------------------------------------------------
      1          8           0        0.000000    0.000000    0.100857
      2          1           0        0.000000    0.758602   -0.403427
      3          1           0       -0.000000   -0.758602   -0.403427
 ---------------------------------------------------------------------
 Rotational constants (GHZ):        1110.1894251         435.6864908         312.8935057
 Leave Link  202 at Wed Sep  3 18:23:23 2025, MaxMem= 12348030976 cpu:               0.3 elap:               0.0
 (Enter /home/hhratchian/gaussian/gdv-20250101-j30+/gdv/local/l301.exe)
 Standard basis: STO-3G (5D, 7F)
 Ernie: Thresh=  0.10000D-02 Tol=  0.10000D-05 Strict=F.
 There are     4 symmetry adapted cartesian basis functions of A1  symmetry.
 There are     0 symmetry adapted cartesian basis functions of A2  symmetry.
 There are     1 symmetry adapted cartesian basis functions of B1  symmetry.
 There are     2 symmetry adapted cartesian basis functions of B2  symmetry.
 There are     4 symmetry adapted basis functions of A1  symmetry.
 There are     0 symmetry adapted basis functions of A2  symmetry.
 There are     1 symmetry adapted basis functions of B1  symmetry.
 There are     2 symmetry adapted basis functions of B2  symmetry.
     7 basis functions,    21 primitive gaussians,     7 cartesian basis functions
     5 alpha electrons        5 beta electrons
       nuclear repulsion energy         9.6435792538 Hartrees.
 IExCor=   2004019 DFT=T Ex+Corr=CAM-B3LYP ScaHFX=  1.000000
 ScaDFX=  1.000000  1.000000  1.000000  0.810000  1.000000  0.000000
 ScaDFX=  0.000000  0.000000  0.000000  0.000000  0.000000  0.000000
 Grid=SuperFine IRanWt=     -1 IRanGd=            0 ICorTp=0 IEDCtl=  2004
 HFx  wShort=  0.000000 wLong=  0.330000 cFull=  0.190000 cShort=  0.000000 cLong=  0.460000
 DFx  wShort=  0.330000 wLong=  0.000000 cFull=  0.350000 cShort=  0.460000 cLong=  0.000000
 NAtoms=    3 NActive=    3 NUniq=    2 SFac= 2.25D+00 NAtFMM=   60 NAOKFM=F Big=F
 Integral buffers will be    131072 words long.
 Raffenetti 2 integral format.
 Two-electron integral symmetry is turned on.
 Leave Link  301 at Wed Sep  3 18:23:23 2025, MaxMem= 12348030976 cpu:               0.2 elap:               0.1
 (Enter /home/hhratchian/gaussian/gdv-20250101-j30+/gdv/l302.exe)
 NPDir=0 NMtPBC=     1 NCelOv=     1 NCel=       1 NClECP=     1 NCelD=      1
         NCelK=      1 NCelE2=     1 NClLst=     1 CellRange=     0.0.
 One-electron integrals computed using PRISM.
 One-electron integral symmetry used in STVInt
 NBasis=     7 RedAO= T EigKep=  3.13D-01  NBF=     4     0     1     2
 NBsUse=     7 1.00D-06 EigRej= -1.00D+00 NBFU=     4     0     1     2
 Precomputing XC quadrature grid using
 IXCGrd=   9 Grid=SuperFine IRanWt=          -1 IRanGd=           0 AccXCQ= 0.00D+00.
 Generated NRdTot=       0 NPtTot=      186050 NUsed=           0 NTot=          64
 NSgBfM=     7     7     7     7     7 MxSgAt=     3 MxSgA2=     3 SizInc=   0.000
 NMBTot=     1271 MaxBatPerAtom=      123 MaxMicBPerAtom=      427 NBfPt=             1123541.
 Leave Link  302 at Wed Sep  3 18:23:23 2025, MaxMem= 12348030976 cpu:               2.5 elap:               0.1
 (Enter /home/hhratchian/gaussian/gdv-20250101-j30+/gdv/l303.exe)
 DipDrv:  MaxL=1.
 Leave Link  303 at Wed Sep  3 18:23:23 2025, MaxMem= 12348030976 cpu:               0.2 elap:               0.0
 (Enter /home/hhratchian/gaussian/gdv-20250101-j30+/gdv/l401.exe)
 ExpMin= 1.69D-01 ExpMax= 1.31D+02 ExpMxC= 1.31D+02 IAcc=3 Grid=SuperFine AccDes= 0.00D+00
 Harris functional with IExCor=10009 and Grid=SuperFine diagonalized for initial guess.
 HarFok:  IExCor=   10009 AccDes= 0.00D+00 Grid=SuperFine IDoV= 1 UseB2=F ITyADJ=14 ICtDFT=  3500011
 FoFCou: FMM=F IPFlag=           0 FMFlag=      100000 FMFlg1=           0
         NFxFlg=           0 DoJE=T BraDBF=F KetDBF=T FulRan=T
         wScrn=  0.000000 ICntrl=       500 IOpCl=  0 I1Cent=   200000004 NGrid=           0
         NMat0=    1 NMatS0=      1 NMatT0=    0 NMatD0=    1 NMtDS0=    0 NMtDT0=    0
 Petite list used in FoFCou.
 Harris En= -75.2955387219535    
 JPrj=0 DoOrth=F DoCkMO=T.
 Mixing orbitals, IMix= 1 IMixAn=  0 NRI=1 NE=    5 Coef=  7.07106781D-01  7.07106781D-01
 Initial guess orbital symmetries:
       Occupied  (A1) (A1) (B2) (A1) (?A)
       Virtual   (?A) (B2)
 Leave Link  401 at Wed Sep  3 18:23:23 2025, MaxMem= 12348030976 cpu:               3.6 elap:               0.1
 (Enter /home/hhratchian/gaussian/gdv-20250101-j30+/gdv/local/l502.exe)
 Keep R1 ints in memory in symmetry-blocked form, NReq=47924202.
 FoFCou: FMM=F IPFlag=           0 FMFlag=           0 FMFlg1=           0
         NFxFlg=           0 DoJE=F BraDBF=F KetDBF=F FulRan=T
         wScrn=  0.000000 ICntrl=       600 IOpCl=  0 I1Cent=           0 NGrid=           0
         NMat0=    1 NMatS0=     28 NMatT0=    0 NMatD0=    1 NMtDS0=    0 NMtDT0=    0
 Petite list used in FoFCou.
 Closed shell SCF:
 Using DIIS extrapolation, IDIIS=  1040.
 NGot= 12348030976 LenX= 12348027978 LenY= 12348027096
 Requested convergence on RMS density matrix=1.00D-08 within 128 cycles.
 Requested convergence on MAX density matrix=1.00D-06.
 Requested convergence on             energy=1.00D-06.
 No special actions if energy rises.
 An orbital has undefined symmetry, so N**3 symmetry is turned off.
 
  Hrant - CycOpn.
 

 Cycle   1  Pass 1  IDiag  1:
 Density matrix breaks symmetry, PCut= 1.00D-04
 Density matrix has no symmetry -- integrals replicated.
 E= -74.7194537753568    
 DIIS: error= 1.23D-01 at cycle   1 NSaved=   1.
 NSaved= 1 IEnMin= 1 EnMin= -74.7194537753568     IErMin= 1 ErrMin= 1.23D-01
 ErrMax= 1.23D-01  0.00D+00 EMaxC= 1.00D-01 BMatC= 3.99D-02 BMatP= 3.99D-02
 Rises=F IDIUse=3 WtCom= 0.00D+00 WtEn= 1.00D+00
 Coeff-Com:  0.100D+01
 Coeff-En:   0.100D+01
 Coeff:      0.100D+01
 Gap=     0.158 Goal=   None    Shift=    0.000
 GapD=    0.158 DampG=1.000 DampE=0.250 DampFc=0.2500 IDamp=-1.
 Damping current iteration by 2.50D-01
 RMSDP=2.43D-01 MaxDP=4.81D-01              OVMax= 0.00D+00

 Cycle   2  Pass 1  IDiag  1:
 Density matrix breaks symmetry, PCut= 1.00D-04
 Density matrix has no symmetry -- integrals replicated.
 E= -74.8289405940411     Delta-E=       -0.109486818684 Rises=F Damp=T AM=F Ri=F Fa=F
 DIIS: error= 9.81D-02 at cycle   2 NSaved=   2.
 NSaved= 2 IEnMin= 2 EnMin= -74.8289405940411     IErMin= 2 ErrMin= 9.81D-02
 ErrMax= 9.81D-02  0.00D+00 EMaxC= 1.00D-01 BMatC= 2.49D-02 BMatP= 3.99D-02
 Rises=F IDIUse=3 WtCom= 1.93D-02 WtEn= 9.81D-01
 Coeff-Com: -0.246D+01 0.346D+01
 Coeff-En:   0.000D+00 0.100D+01
 Coeff:     -0.474D-01 0.105D+01
 Gap=     0.574 Goal=   None    Shift=    0.000
 RMSDP=1.92D-01 MaxDP=3.68D-01 DE=-1.09D-01 OVMax= 0.00D+00

 Cycle   3  Pass 1  IDiag  1:
 Density matrix breaks symmetry, PCut= 1.00D-04
 Density matrix has no symmetry -- integrals replicated.
 E= -75.2339163676424     Delta-E=       -0.404975773601 Rises=F Damp=F AM=F Ri=F Fa=F
 DIIS: error= 3.76D-02 at cycle   3 NSaved=   3.
 NSaved= 3 IEnMin= 3 EnMin= -75.2339163676424     IErMin= 3 ErrMin= 3.76D-02
 ErrMax= 3.76D-02  0.00D+00 EMaxC= 1.00D-01 BMatC= 5.72D-03 BMatP= 2.49D-02
 Rises=F IDIUse=3 WtCom= 6.24D-01 WtEn= 3.76D-01
 Coeff-Com:  0.339D+01-0.483D+01 0.244D+01
 Coeff-En:   0.000D+00 0.000D+00 0.100D+01
 Coeff:      0.212D+01-0.301D+01 0.190D+01
 Gap=     0.642 Goal=   None    Shift=    0.000
 RMSDP=4.36D-02 MaxDP=9.83D-02 DE=-4.05D-01 OVMax= 0.00D+00

 Cycle   4  Pass 1  IDiag  1:
 Density matrix breaks symmetry, PCut= 1.00D-04
 Density matrix has no symmetry -- integrals replicated.
 E= -75.2549410662346     Delta-E=       -0.021024698592 Rises=F Damp=F AM=F Ri=F Fa=F
 DIIS: error= 1.63D-02 at cycle   4 NSaved=   4.
 NSaved= 4 IEnMin= 4 EnMin= -75.2549410662346     IErMin= 4 ErrMin= 1.63D-02
 ErrMax= 1.63D-02  0.00D+00 EMaxC= 1.00D-01 BMatC= 1.02D-03 BMatP= 5.72D-03
 Rises=F IDIUse=3 WtCom= 8.37D-01 WtEn= 1.63D-01
 Coeff-Com:  0.229D+00-0.427D+00 0.494D+00 0.704D+00
 Coeff-En:   0.000D+00 0.000D+00 0.000D+00 0.100D+01
 Coeff:      0.192D+00-0.357D+00 0.414D+00 0.752D+00
 Gap=     0.678 Goal=   None    Shift=    0.000
 RMSDP=7.35D-03 MaxDP=2.14D-02 DE=-2.10D-02 OVMax= 0.00D+00

 Cycle   5  Pass 1  IDiag  1:
 Density matrix breaks symmetry, PCut= 1.00D-04
 Density matrix has no symmetry -- integrals replicated.
 E= -75.2573941520730     Delta-E=       -0.002453085838 Rises=F Damp=F AM=F Ri=F Fa=F
 DIIS: error= 2.84D-03 at cycle   5 NSaved=   5.
 NSaved= 5 IEnMin= 5 EnMin= -75.2573941520730     IErMin= 5 ErrMin= 2.84D-03
 ErrMax= 2.84D-03  0.00D+00 EMaxC= 1.00D-01 BMatC= 2.42D-05 BMatP= 1.02D-03
 Rises=F IDIUse=3 WtCom= 9.85D-01 WtEn= 1.52D-02
 Coeff-Com:  0.101D+00-0.190D+00 0.233D+00 0.246D+00 0.610D+00
 Coeff-En:   0.000D+00 0.000D+00 0.000D+00 0.000D+00 0.100D+01
 Coeff:      0.994D-01-0.187D+00 0.230D+00 0.242D+00 0.616D+00
 Gap=     0.672 Goal=   None    Shift=    0.000
 RMSDP=3.86D-04 MaxDP=1.31D-03 DE=-2.45D-03 OVMax= 0.00D+00

 Cycle   6  Pass 1  IDiag  1:
 Density matrix breaks symmetry, PCut= 1.00D-04
 Density matrix has no symmetry -- integrals replicated.
 E= -75.2574219312477     Delta-E=       -0.000027779175 Rises=F Damp=F AM=F Ri=F Fa=F
 DIIS: error= 2.08D-03 at cycle   6 NSaved=   6.
 NSaved= 6 IEnMin= 6 EnMin= -75.2574219312477     IErMin= 6 ErrMin= 2.08D-03
 ErrMax= 2.08D-03  0.00D+00 EMaxC= 1.00D-01 BMatC= 1.36D-05 BMatP= 2.42D-05
 Rises=F IDIUse=3 WtCom= 9.94D-01 WtEn= 5.91D-03
 Coeff-Com:  0.262D-02-0.330D-02 0.802D-02-0.648D-01-0.114D+01 0.220D+01
 Coeff-En:   0.000D+00 0.000D+00 0.000D+00 0.000D+00 0.000D+00 0.100D+01
 Coeff:      0.261D-02-0.328D-02 0.798D-02-0.645D-01-0.114D+01 0.220D+01
 Gap=     0.668 Goal=   None    Shift=    0.000
 RMSDP=1.03D-03 MaxDP=3.41D-03 DE=-2.78D-05 OVMax= 0.00D+00

 Cycle   7  Pass 1  IDiag  1:
 E= -75.2574563403436     Delta-E=       -0.000034409096 Rises=F Damp=F AM=F Ri=F Fa=F
 DIIS: error= 2.76D-05 at cycle   7 NSaved=   7.
 NSaved= 7 IEnMin= 7 EnMin= -75.2574563403436     IErMin= 7 ErrMin= 2.76D-05
 ErrMax= 2.76D-05  0.00D+00 EMaxC= 1.00D-01 BMatC= 2.33D-09 BMatP= 1.36D-05
 Rises=F IDIUse=1 WtCom= 1.00D+00 WtEn= 0.00D+00
 Coeff-Com:  0.177D-02-0.327D-02 0.270D-02 0.131D-01 0.133D+00-0.249D+00
 Coeff-Com:  0.110D+01
 Coeff:      0.177D-02-0.327D-02 0.270D-02 0.131D-01 0.133D+00-0.249D+00
 Coeff:      0.110D+01
 Gap=     0.668 Goal=   None    Shift=    0.000
 RMSDP=2.77D-05 MaxDP=1.04D-04 DE=-3.44D-05 OVMax= 0.00D+00

 Cycle   8  Pass 1  IDiag  1:
 E= -75.2574563361916     Delta-E=        0.000000004152 Rises=F Damp=F AM=F Ri=F Fa=F
 DIIS: error= 3.46D-05 at cycle   8 NSaved=   8.
 NSaved= 8 IEnMin= 7 EnMin= -75.2574563403436     IErMin= 7 ErrMin= 2.76D-05
 ErrMax= 3.46D-05  0.00D+00 EMaxC= 1.00D-01 BMatC= 3.92D-09 BMatP= 2.33D-09
 Rises=F IDIUse=1 WtCom= 1.00D+00 WtEn= 0.00D+00
 Coeff-Com:  0.124D-03-0.200D-03 0.273D-03-0.751D-03-0.116D-01 0.309D-02
 Coeff-Com: -0.179D+00 0.119D+01
 Coeff:      0.124D-03-0.200D-03 0.273D-03-0.751D-03-0.116D-01 0.309D-02
 Coeff:     -0.179D+00 0.119D+01
 Gap=     0.668 Goal=   None    Shift=    0.000
 RMSDP=1.73D-05 MaxDP=5.36D-05 DE= 4.15D-09 OVMax= 0.00D+00

 Cycle   9  Pass 1  IDiag  1:
 E= -75.2574563462096     Delta-E=       -0.000000010018 Rises=F Damp=F AM=F Ri=F Fa=F
 DIIS: error= 1.05D-06 at cycle   9 NSaved=   9.
 NSaved= 9 IEnMin= 9 EnMin= -75.2574563462096     IErMin= 9 ErrMin= 1.05D-06
 ErrMax= 1.05D-06  0.00D+00 EMaxC= 1.00D-01 BMatC= 3.83D-12 BMatP= 2.33D-09
 Rises=F IDIUse=1 WtCom= 1.00D+00 WtEn= 0.00D+00
 Coeff-Com: -0.178D-07 0.467D-07-0.110D-06-0.343D-05 0.594D-04 0.225D-03
 Coeff-Com: -0.528D-02-0.533D-01 0.106D+01
 Coeff:     -0.178D-07 0.467D-07-0.110D-06-0.343D-05 0.594D-04 0.225D-03
 Coeff:     -0.528D-02-0.533D-01 0.106D+01
 Gap=     0.668 Goal=   None    Shift=    0.000
 RMSDP=5.98D-07 MaxDP=1.70D-06 DE=-1.00D-08 OVMax= 0.00D+00

 Cycle  10  Pass 1  IDiag  1:
 E= -75.2574563462196     Delta-E=       -0.000000000010 Rises=F Damp=F AM=F Ri=F Fa=F
 DIIS: error= 8.50D-10 at cycle  10 NSaved=  10.
 NSaved=10 IEnMin=10 EnMin= -75.2574563462196     IErMin=10 ErrMin= 8.50D-10
 ErrMax= 8.50D-10  0.00D+00 EMaxC= 1.00D-01 BMatC= 2.33D-18 BMatP= 3.83D-12
 Rises=F IDIUse=1 WtCom= 1.00D+00 WtEn= 0.00D+00
 Coeff-Com: -0.386D-11 0.566D-11 0.123D-09 0.354D-08-0.139D-06-0.486D-07
 Coeff-Com:  0.150D-04 0.112D-03-0.205D-02 0.100D+01
 Coeff:     -0.386D-11 0.566D-11 0.123D-09 0.354D-08-0.139D-06-0.486D-07
 Coeff:      0.150D-04 0.112D-03-0.205D-02 0.100D+01
 Gap=     0.668 Goal=   None    Shift=    0.000
 RMSDP=4.56D-10 MaxDP=1.35D-09 DE=-1.00D-11 OVMax= 0.00D+00

 SCF Done:  E(RCAM-B3LYP) =  -75.2574563462     A.U. after   10 cycles
            NFock= 10  Conv=0.46D-09     -V/T= 2.0076
 KE=          74.689700 PE=        -197.890061 EE=          38.299326
 Leave Link  502 at Wed Sep  3 18:23:24 2025, MaxMem= 12348030976 cpu:               8.4 elap:               0.2
 (Enter /home/hhratchian/gaussian/gdv-20250101-j30+/gdv/l601.exe)
 Copying SCF densities to generalized density rwf, IOpCl= 0 IROHF=0.
 
 **********************************************************************
 
               Population analysis using the SCF Density.
 
 **********************************************************************
 
 Orbital symmetries:
       Occupied  (A1) (A1) (B2) (A1) (B1)
       Virtual   (A1) (B2)
 The electronic state is 1-A1.
 Alpha  occ. eigenvalues --      -18.88766      -1.02457      -0.54257      -0.27312      -0.21155
 Alpha virt. eigenvalues --        0.45635       0.61787
          Condensed to atoms (all electrons):
               1          2          3
     1  O    7.871803   0.278750   0.278750
     2  H    0.278750   0.555916  -0.049317
     3  H    0.278750  -0.049317   0.555916
 Mulliken charges:
               1
     1  O   -0.429303
     2  H    0.214651
     3  H    0.214651
 Sum of Mulliken charges=  -0.00000
 Mulliken charges with hydrogens summed into heavy atoms:
               1
     1  O   -0.000000
 Electronic spatial extent (au):  <R**2>=             17.2029
 Charge=             -0.0000 electrons
 Dipole moment (field-independent basis, Debye):
    X=             -0.0000    Y=             -0.0000    Z=             -1.7151  Tot=              1.7151
 Quadrupole moment (field-independent basis, Debye-Ang):
   XX=             -6.0447   YY=             -4.1202   ZZ=             -5.4909
   XY=              0.0000   XZ=              0.0000   YZ=              0.0000
 Traceless Quadrupole moment (field-independent basis, Debye-Ang):
   XX=             -0.8261   YY=              1.0984   ZZ=             -0.2723
   XY=              0.0000   XZ=              0.0000   YZ=              0.0000
 Octapole moment (field-independent basis, Debye-Ang**2):
  XXX=              0.0000  YYY=             -0.0000  ZZZ=             -0.2249  XYY=             -0.0000
  XXY=              0.0000  XXZ=             -0.0320  XZZ=              0.0000  YZZ=             -0.0000
  YYZ=             -0.5716  XYZ=             -0.0000
 Hexadecapole moment (field-independent basis, Debye-Ang**3):
 XXXX=             -3.1776 YYYY=             -6.0982 ZZZZ=             -4.3743 XXXY=             -0.0000
 XXXZ=             -0.0000 YYYX=             -0.0000 YYYZ=             -0.0000 ZZZX=             -0.0000
 ZZZY=             -0.0000 XXYY=             -1.7200 XXZZ=             -1.2798 YYZZ=             -1.6139
 XXYZ=              0.0000 YYXZ=              0.0000 ZZXY=             -0.0000
 N-N=           9.643579 E-N=        -197.890061  KE=          74.689700
 Symmetry A1   KE=          66.675980
 Symmetry A2   KE=           0.000000
 Symmetry B1   KE=           5.057462
 Symmetry B2   KE=           2.956257
 No NMR shielding tensors so no spin-rotation constants.
 Leave Link  601 at Wed Sep  3 18:23:24 2025, MaxMem= 12348030976 cpu:               2.1 elap:               0.1
 (Enter /home/hhratchian/gaussian/gdv-20250101-j30+/gdv/l801.exe)
 DoSCS=F DFT=T ScalE2(SS,OS)=  1.000000  1.000000
 Range of M.O.s used for correlation:     1     7
 NBasis=     7 NAE=     5 NBE=     5 NFC=     0 NFV=     0
 NROrb=      7 NOA=     5 NOB=     5 NVA=     2 NVB=     2
 Leave Link  801 at Wed Sep  3 18:23:24 2025, MaxMem= 12348030976 cpu:               0.2 elap:               0.0
 (Enter /home/hhratchian/gaussian/gdv-20250101-j30+/gdv/l914.exe)
 RHF ground state
 Doing stability rather than CIS.
 DoSCS=F DFT=T ScalE2(SS,OS)=  1.000000  1.000000
   ScalD2(USS,UOS,TSS,TOS,w)=  1.000000  1.000000  1.000000  1.000000  1.000000
 Keep R1 and R2 ints in memory in symmetry-blocked form, NReq=53731245.
 FoFCou: FMM=F IPFlag=           0 FMFlag=           0 FMFlg1=           0
         NFxFlg=           0 DoJE=F BraDBF=F KetDBF=F FulRan=T
         wScrn=  0.000000 ICntrl=       600 IOpCl=  0 I1Cent=           0 NGrid=           0
         NMat0=    1 NMatS0=     28 NMatT0=    0 NMatD0=    1 NMtDS0=    0 NMtDT0=    0
 Petite list used in FoFCou.
 MDV= 12348030976 DFT=T IDoStb=1 Mixed=T DoRPA=F DoScal=F NonHer=F
 Making orbital integer symmetry assigments:
 Orbital symmetries:
       Occupied  (A1) (A1) (B2) (A1) (B1)
       Virtual   (A1) (B2)
    20 initial guesses have been made.
 Convergence on wavefunction:    0.001000000000000
 Davidson Disk Diagonalization:  ConvIn= 1.00D-03 SkipCon=T Conv= 1.00D-03.
 Max sub-space:    48 initial roots:    24 roots to seek:     1 dimension of matrix:           20
 *** WARNING: Number of orthogonal guesses is           20
 Iteration     1 Dimension    20 NMult     0 NNew     20
 CISAX will form    20 AO SS matrices at one time.
 NMat=    20 NSing=    10 JSym2X= 2.
 New state      1 was old state      2
 Excitation Energies [eV] at current iteration:
 Root      1 :     9.856107002978735
 Root      2 :    11.310328355981968
 Root      3 :    13.980727297963217
 Root      4 :    14.050191906405702
 Root      5 :    14.201276426145217
 Root      6 :    15.261453756317961
 Root      7 :    16.466112152094990
 Root      8 :    18.064717999000035
 Root      9 :    20.338672554392904
 Root     10 :    20.455292567111332
 Root     11 :    26.610027277062557
 Root     12 :    31.144082815994370
 Root     13 :    32.139328716439614
 Root     14 :    35.845717010926656
 Root     15 :    41.570423755865349
 Root     16 :    47.467555275795483
 Root     17 :   517.264879656234825
 Root     18 :   520.856534122680046
 Root     19 :   521.075426619101677
 Root     20 :   523.482589833496831
 Convergence achieved for final wavefunctions.
 1PDM for each excited state written to RWF  633
 Ground to excited state transition densities written to RWF  633

 ***********************************************************************
 Stability analysis using <AA,BB:AA,BB> singles matrix:
 ***********************************************************************

 Eigenvectors of the stability matrix:
 
 Eigenvector   1:      Triplet-B1   Eigenvalue= 0.3622053  <S**2>=2.000
       5 ->  6         0.70711
 
 Eigenvector   2:      Triplet-A1   Eigenvalue= 0.4156469  <S**2>=2.000
       3 ->  7        -0.12260
       4 ->  6         0.69161
 
 Eigenvector   3:      Triplet-A2   Eigenvalue= 0.5137823  <S**2>=2.000
       5 ->  7         0.70711
 
 Eigenvector   4:      Singlet-B1   Eigenvalue= 0.5163351  <S**2>=0.000
       5 ->  6         0.70711
 
 Eigenvector   5:      Triplet-B2   Eigenvalue= 0.5218873  <S**2>=2.000
       3 ->  6        -0.31169
       4 ->  7         0.63373
 
 Eigenvector   6:      Singlet-A1   Eigenvalue= 0.5608481  <S**2>=0.000
       3 ->  7         0.14517
       4 ->  6         0.68832
 The wavefunction is stable under the perturbations considered.
 Leave Link  914 at Wed Sep  3 18:23:24 2025, MaxMem= 12348030976 cpu:               5.7 elap:               0.2
 (Enter /home/hhratchian/gaussian/gdv-20250101-j30+/gdv/l508.exe)
 The wavefunction is already stable.
 Leave Link  508 at Wed Sep  3 18:23:24 2025, MaxMem= 12348030976 cpu:               0.1 elap:               0.0
 (Enter /home/hhratchian/gaussian/gdv-20250101-j30+/gdv/l601.exe)
 Copying SCF densities to generalized density rwf, IOpCl= 0 IROHF=0.
 
 **********************************************************************
 
               Population analysis using the SCF Density.
 
 **********************************************************************
 
 Orbital symmetries:
       Occupied  (A1) (A1) (B2) (A1) (B1)
       Virtual   (A1) (B2)
 The electronic state is 1-A1.
 Alpha  occ. eigenvalues --      -18.88766      -1.02457      -0.54257      -0.27312      -0.21155
 Alpha virt. eigenvalues --        0.45635       0.61787
          Condensed to atoms (all electrons):
               1          2          3
     1  O    7.871803   0.278750   0.278750
     2  H    0.278750   0.555916  -0.049317
     3  H    0.278750  -0.049317   0.555916
 Mulliken charges:
               1
     1  O   -0.429303
     2  H    0.214651
     3  H    0.214651
 Sum of Mulliken charges=  -0.00000
 Mulliken charges with hydrogens summed into heavy atoms:
               1
     1  O   -0.000000
 Electronic spatial extent (au):  <R**2>=             17.2029
 Charge=             -0.0000 electrons
 Dipole moment (field-independent basis, Debye):
    X=             -0.0000    Y=             -0.0000    Z=             -1.7151  Tot=              1.7151
 Quadrupole moment (field-independent basis, Debye-Ang):
   XX=             -6.0447   YY=             -4.1202   ZZ=             -5.4909
   XY=              0.0000   XZ=              0.0000   YZ=              0.0000
 Traceless Quadrupole moment (field-independent basis, Debye-Ang):
   XX=             -0.8261   YY=              1.0984   ZZ=             -0.2723
   XY=              0.0000   XZ=              0.0000   YZ=              0.0000
 Octapole moment (field-independent basis, Debye-Ang**2):
  XXX=              0.0000  YYY=             -0.0000  ZZZ=             -0.2249  XYY=             -0.0000
  XXY=              0.0000  XXZ=             -0.0320  XZZ=              0.0000  YZZ=             -0.0000
  YYZ=             -0.5716  XYZ=             -0.0000
 Hexadecapole moment (field-independent basis, Debye-Ang**3):
 XXXX=             -3.1776 YYYY=             -6.0982 ZZZZ=             -4.3743 XXXY=             -0.0000
 XXXZ=             -0.0000 YYYX=             -0.0000 YYYZ=             -0.0000 ZZZX=             -0.0000
 ZZZY=             -0.0000 XXYY=             -1.7200 XXZZ=             -1.2798 YYZZ=             -1.6139
 XXYZ=              0.0000 YYXZ=              0.0000 ZZXY=             -0.0000
 N-N=           9.643579 E-N=        -197.890061  KE=          74.689700
 Symmetry A1   KE=          66.675980
 Symmetry A2   KE=           0.000000
 Symmetry B1   KE=           5.057462
 Symmetry B2   KE=           2.956257
 No NMR shielding tensors so no spin-rotation constants.
 Leave Link  601 at Wed Sep  3 18:23:24 2025, MaxMem= 12348030976 cpu:               2.3 elap:               0.1
 (Enter /home/hhratchian/gaussian/gdv-20250101-j30+/gdv/local/l9999.exe)
 Unable to Open any file for archive entry.
 1\1\GINC-NODE030\Stability\RCAM-B3LYP\STO-3G\H2O1\AABOUTAKA\03-Sep-202
 5\0\\#p CAM-B3LYP/STO-3G stable=opt scf=novaracc guess=mix int=superfi
 negrid\\H2O — CAM-B3LYP/STO-3G q=0 m=1 [1/3: Stability]\\0,1\O,0,0.,
 0.,0.\H,0,0.758602,0.,0.504284\H,0,-0.758602,0.,0.504284\\Version=ES64
 L-GDVRevJ.30+\State=1-A1\HF=-75.2574563\RMSD=4.561e-10\Dipole=0.,0.,0.
 6747668\Quadrupole=0.8166173,-0.6141922,-0.2024251,0.,0.,0.\PG=C02V [C
 2(O1),SGV(H2)]\\@
 The archive entry for this job was punched.


 THE CAUTIOUS SELDOM ERR...CONFUCIUS                   
 Job cpu time:       0 days  0 hours  0 minutes 26.9 seconds.
 Elapsed time:       0 days  0 hours  0 minutes  1.1 seconds.
 File lengths (MBytes):  RWF=     22 Int=      0 D2E=      0 Chk=      2 Scr=      2
 Normal termination of Gaussian DV at Wed Sep  3 18:23:24 2025.
 Initial command:
 /home/hhratchian/gaussian/gdv-20250101-j30+/gdv/local/l1.exe "/scratch/aaboutaka/1590344/Gau-3814934.inp" -scrdir="/scratch/aaboutaka/1590344/"
 Default is to use a total of  56 processors:
                               56 via shared-memory
                                1 via Linda
 Entering Link 1 = /home/hhratchian/gaussian/gdv-20250101-j30+/gdv/local/l1.exe PID=   3815707.
  
 Copyright (c) 1988-2024, Gaussian, Inc.  All Rights Reserved.
  
 This is the private, development version of
 the Gaussian(R) DV system of programs. It is based on
 the Gaussian(R) 16 system (copyright 2016, Gaussian, Inc.),
 the Gaussian(R) 09 system (copyright 2009, Gaussian, Inc.),
 the Gaussian(R) 03 system (copyright 2003, Gaussian, Inc.),
 the Gaussian(R) 98 system (copyright 1998, Gaussian, Inc.),
 the Gaussian(R) 94 system (copyright 1995, Gaussian, Inc.),
 the Gaussian 92(TM) system (copyright 1992, Gaussian, Inc.),
 the Gaussian 90(TM) system (copyright 1990, Gaussian, Inc.),
 the Gaussian 88(TM) system (copyright 1988, Gaussian, Inc.),
 the Gaussian 86(TM) system (copyright 1986, Carnegie Mellon
 University), and the Gaussian 82(TM) system (copyright 1983,
 Carnegie Mellon University). Gaussian is a federally registered
 trademark of Gaussian, Inc.
  
 This software contains proprietary and confidential information,
 including trade secrets, belonging to Gaussian, Inc.
  
 This software is provided under written license and may be
 used, copied, transmitted, or stored only in accord with that
 written license.
  
 The following legend is applicable only to US Government
 contracts under FAR:
  
                    RESTRICTED RIGHTS LEGEND
  
 Use, reproduction and disclosure by the US Government is
 subject to restrictions as set forth in subparagraphs (a)
 and (c) of the Commercial Computer Software - Restricted
 Rights clause in FAR 52.227-19.
  
 Gaussian, Inc.
 340 Quinnipiac St., Bldg. 40, Wallingford CT 06492
  
  
 ---------------------------------------------------------------
 Warning -- This program may not be used in any manner that
 competes with the business of Gaussian, Inc. or will provide
 assistance to any competitor of Gaussian, Inc.  The licensee
 of this program is prohibited from giving any competitor of
 Gaussian, Inc. access to this program.  By using this program,
 the user acknowledges that Gaussian, Inc. is engaged in the
 business of creating and licensing software in the field of
 computational chemistry and represents and warrants to the
 licensee that it is not a competitor of Gaussian, Inc. and that
 it will not use this program in any manner prohibited above.
 ---------------------------------------------------------------
  

 Cite this work as:
 Gaussian Development Version, Revision J.30+,
 M. J. Frisch, G. W. Trucks, G. Scalmani, J. R. Cheeseman, X. Li, 
 J. Bloino, B. G. Janesko, A. V. Marenich, J. Zheng, F. Lipparini, 
 A. Jenkins, A. Liu, H. Liu, H. B. Schlegel, G. E. Scuseria, 
 M. A. Robb, V. Barone, G. A. Petersson, H. Nakatsuji, B. Mennucci, 
 C. Adamo, N. Rega, M. Caricato, H. P. Hratchian, J. V. Ortiz, 
 F. Pawlowski, A. F. Izmaylov, H. Hu, C. Liao, J. L. Sonnenberg, 
 D. Williams-Young, F. Ding, R. Gomperts, F. Egidi, J. Goings, 
 B. Peng, A. Petrone, T. Henderson, D. Ranasinghe, V. G. Zakrzewski, 
 J. Gao, G. Zheng, W. Liang, M. Hada, M. Ehara, K. Toyota, R. Fukuda, 
 J. Hasegawa, M. Ishida, T. Nakajima, Y. Honda, O. Kitao, H. Nakai, 
 T. Vreven, K. Throssell, J. A. Montgomery, Jr., J. E. Peralta, 
 F. Ogliaro, M. J. Bearpark, J. J. Heyd, E. N. Brothers, K. N. Kudin, 
 V. N. Staroverov, T. A. Keith, R. Kobayashi, J. Normand, 
 K. Raghavachari, A. P. Rendell, J. C. Burant, S. S. Iyengar, 
 M. Cossi, J. M. Millam, M. Klene, R. Cammi, R. L. Martin, O. Farkas, 
 J. B. Foresman, and D. J. Fox, Gaussian, Inc., Wallingford CT, 2024.
 
 *******************************************
 Gaussian DV:  ES64L-GDVRevJ.30+ 18-Dec-2024
                  3-Sep-2025 
 *******************************************
 %oldchk=H2O_CAM-B3LYP_STO-3G_q0_m1_stab.chk
 %chk=H2O_CAM-B3LYP_STO-3G_q0_m1.chk
 Copying data from "H2O_CAM-B3LYP_STO-3G_q0_m1_stab.chk" to current chk file "H2O_CAM-B3LYP_STO-3G_q0_m1.chk"
 IOpt=  2 FromEx=T IUOpen= 4 IOptOp= 5 NList=   0 IFRang= 0 IUIn= 4 IUOut= 2.
 ----------------------------------------------------------------------
 #p CAM-B3LYP guess=read chkbasis geom=allcheck Opt Freq int=superfineg
 rid scf=xqc
 ----------------------------------------------------------------------
 1/18=20,19=15,26=5,29=7,38=1/1,3;
 2/9=110,12=2/2;
 3/5=7,6=2,11=2,14=-4,25=1,30=1,67=1,71=1,74=-40,75=-7,116=-2/1,2,3;
 4/5=1/1;
 5/5=2,8=3,13=1,38=6/2,8;
 6/7=2,8=2,9=2,10=2,28=1/1;
 7//1,2,3,16;
 1/18=20,19=15,26=5/3(2);
 2/9=110/2;
 99//99;
 2/9=110/2;
 3/5=7,6=1,11=2,14=-2,25=1,30=1,71=1,74=-40,75=-7,82=7,187=7/1,2,3;
 4/5=5,16=3,69=1/1;
 5/5=2,8=3,13=1,38=5/2,8;
 7//1,2,3,16;
 1/18=20,19=15,26=5/3(-5);
 2/9=110/2;
 6/7=2,8=2,9=2,10=2,19=2,28=1/1;
 99/9=1/99;
 Leave Link    1 at Wed Sep  3 18:23:24 2025, MaxMem= 12348030976 cpu:               0.2 elap:               0.1
 (Enter /home/hhratchian/gaussian/gdv-20250101-j30+/gdv/local/l101.exe)
 
  Hrant - IAPOps =                         0
  Hrant - IAPOp1 =                         0
  Hrant - IAPOp2 =                         0
  Hrant - DoAP   =   F
 
 Structure from the checkpoint file:  "H2O_CAM-B3LYP_STO-3G_q0_m1.chk"
 -------------------------------------------------
 H2O — CAM-B3LYP/STO-3G q=0 m=1 [1/3: Stability]
 -------------------------------------------------
 Charge =     0 Multiplicity =     1
 Z-Matrix found in chk file.
 O,0,0.,0.,0.
 H,0,0.758602,0.,0.504284
 H,0,-0.758602,0.,0.504284
 
 Recover connectivity data from disk.
 Initializing the GIC definitions file.
 ITRead=  0  0  0
 MicOpt= -1 -1 -1
 NAtoms=      3 NQM=        3 NQMF=       0 NMMI=      0 NMMIF=      0
                NMic=       0 NMicF=      0.
                    Isotopes and Nuclear Properties:
 (Nuclear quadrupole moments (NQMom) in fm**2, nuclear magnetic moments (NMagM)
  in nuclear magnetons)

  Atom         1           2           3
 IAtWgt=          16           1           1
 AtmWgt=  15.9949146   1.0078250   1.0078250
 NucSpn=           0           1           1
 AtZEff=    5.600000    1.000000    1.000000
 NQMom=    0.0000000   0.0000000   0.0000000
 NMagM=    0.0000000   2.7928460   2.7928460
 AtZNuc=   8.0000000   1.0000000   1.0000000
 Leave Link  101 at Wed Sep  3 18:23:28 2025, MaxMem= 12348030976 cpu:               3.8 elap:               3.6
 (Enter /home/hhratchian/gaussian/gdv-20250101-j30+/gdv/l103.exe)

 GradGradGradGradGradGradGradGradGradGradGradGradGradGradGradGradGradGrad
 Berny optimization.
 Initialization pass.
                           ----------------------------
                           !    Initial Parameters    !
                           ! (Angstroms and Degrees)  !
 --------------------------                            --------------------------
 ! Name  Definition              Value          Derivative Info.                !
 --------------------------------------------------------------------------------
 ! R1    R(1,2)                  0.9109         estimate D2E/DX2                !
 ! R2    R(1,3)                  0.9109         estimate D2E/DX2                !
 ! A1    A(2,1,3)              112.7717         estimate D2E/DX2                !
 --------------------------------------------------------------------------------
 Trust Radius=3.00D-01 FncErr=1.00D-07 GrdErr=1.00D-07 EigMax=2.50D+02 EigMin=1.00D-04
 Number of steps in this run=     20 maximum allowed number of steps=    100.
 GradGradGradGradGradGradGradGradGradGradGradGradGradGradGradGradGradGrad

 Leave Link  103 at Wed Sep  3 18:23:28 2025, MaxMem= 12348030976 cpu:               0.1 elap:               0.0
 (Enter /home/hhratchian/gaussian/gdv-20250101-j30+/gdv/l202.exe)
                          Input orientation:                          
 ---------------------------------------------------------------------
 Center     Atomic      Atomic             Coordinates (Angstroms)
 Number     Number       Type             X           Y           Z
 ---------------------------------------------------------------------
      1          8           0       -0.000000   -0.000000    0.000000
      2          1           0        0.758602    0.000000    0.504284
      3          1           0       -0.758602   -0.000000    0.504284
 ---------------------------------------------------------------------
                    Distance matrix (angstroms):
                    1          2          3
     1  O    0.000000
     2  H    0.910922   0.000000
     3  H    0.910922   1.517204   0.000000
 Stoichiometry    H2O
 Framework group  C2V[C2(O),SGV(H2)]
 Deg. of freedom     2
 Full point group                 C2V     NOp   4
 RotChk:  IX=0 Diff= 7.38D-16
 Largest Abelian subgroup         C2V     NOp   4
 Largest concise Abelian subgroup C2      NOp   2
                         Standard orientation:                         
 ---------------------------------------------------------------------
 Center     Atomic      Atomic             Coordinates (Angstroms)
 Number     Number       Type             X           Y           Z
 ---------------------------------------------------------------------
      1          8           0       -0.000000    0.000000    0.100857
      2          1           0        0.000000    0.758602   -0.403427
      3          1           0       -0.000000   -0.758602   -0.403427
 ---------------------------------------------------------------------
 Rotational constants (GHZ):        1110.1894251         435.6864908         312.8935057
 Leave Link  202 at Wed Sep  3 18:23:28 2025, MaxMem= 12348030976 cpu:               0.3 elap:               0.0
 (Enter /home/hhratchian/gaussian/gdv-20250101-j30+/gdv/local/l301.exe)
 Basis read from chk: "H2O_CAM-B3LYP_STO-3G_q0_m1.chk" (5D, 7F)
 No pseudopotential information found on chk file.
 There are     4 symmetry adapted cartesian basis functions of A1  symmetry.
 There are     0 symmetry adapted cartesian basis functions of A2  symmetry.
 There are     1 symmetry adapted cartesian basis functions of B1  symmetry.
 There are     2 symmetry adapted cartesian basis functions of B2  symmetry.
 There are     4 symmetry adapted basis functions of A1  symmetry.
 There are     0 symmetry adapted basis functions of A2  symmetry.
 There are     1 symmetry adapted basis functions of B1  symmetry.
 There are     2 symmetry adapted basis functions of B2  symmetry.
     7 basis functions,    21 primitive gaussians,     7 cartesian basis functions
     5 alpha electrons        5 beta electrons
       nuclear repulsion energy         9.6435792538 Hartrees.
 IExCor=   2004019 DFT=T Ex+Corr=CAM-B3LYP ScaHFX=  1.000000
 ScaDFX=  1.000000  1.000000  1.000000  0.810000  1.000000  0.000000
 ScaDFX=  0.000000  0.000000  0.000000  0.000000  0.000000  0.000000
 Grid=SuperFine IRanWt=     -1 IRanGd=            0 ICorTp=0 IEDCtl=  2004
 HFx  wShort=  0.000000 wLong=  0.330000 cFull=  0.190000 cShort=  0.000000 cLong=  0.460000
 DFx  wShort=  0.330000 wLong=  0.000000 cFull=  0.350000 cShort=  0.460000 cLong=  0.000000
 NAtoms=    3 NActive=    3 NUniq=    2 SFac= 2.25D+00 NAtFMM=   60 NAOKFM=F Big=F
 Integral buffers will be    131072 words long.
 Raffenetti 2 integral format.
 Two-electron integral symmetry is turned on.
 No density basis found on file 200724.
 Leave Link  301 at Wed Sep  3 18:23:28 2025, MaxMem= 12348030976 cpu:               0.2 elap:               0.1
 (Enter /home/hhratchian/gaussian/gdv-20250101-j30+/gdv/l302.exe)
 NPDir=0 NMtPBC=     1 NCelOv=     1 NCel=       1 NClECP=     1 NCelD=      1
         NCelK=      1 NCelE2=     1 NClLst=     1 CellRange=     0.0.
 One-electron integrals computed using PRISM.
 One-electron integral symmetry used in STVInt
 NBasis=     7 RedAO= T EigKep=  3.13D-01  NBF=     4     0     1     2
 NBsUse=     7 1.00D-06 EigRej= -1.00D+00 NBFU=     4     0     1     2
 Precomputing XC quadrature grid using
 IXCGrd=   9 Grid=SuperFine IRanWt=          -1 IRanGd=           0 AccXCQ= 0.00D+00.
 Generated NRdTot=       0 NPtTot=      186094 NUsed=           0 NTot=          64
 NSgBfM=     7     7     7     7     7 MxSgAt=     3 MxSgA2=     3 SizInc=   0.000
 NMBTot=     1281 MaxBatPerAtom=      123 MaxMicBPerAtom=      432 NBfPt=             1123524.
 Leave Link  302 at Wed Sep  3 18:23:28 2025, MaxMem= 12348030976 cpu:               2.4 elap:               0.1
 (Enter /home/hhratchian/gaussian/gdv-20250101-j30+/gdv/l303.exe)
 DipDrv:  MaxL=1.
 Leave Link  303 at Wed Sep  3 18:23:28 2025, MaxMem= 12348030976 cpu:               0.2 elap:               0.0
 (Enter /home/hhratchian/gaussian/gdv-20250101-j30+/gdv/l401.exe)
 Initial guess from the checkpoint file:  "H2O_CAM-B3LYP_STO-3G_q0_m1.chk"
 B after Tr=     0.000000   -0.000000    0.000000
         Rot=    1.000000   -0.000000   -0.000000   -0.000000 Ang=   0.00 deg.
 AO Guess basis will be translated and rotated to current coordinates.
 JPrj=2 DoOrth=T DoCkMO=T.
 Initial guess orbital symmetries:
       Occupied  (A1) (A1) (B2) (A1) (B1)
       Virtual   (A1) (B2)
 The electronic state of the initial guess is 1-A1.
 Leave Link  401 at Wed Sep  3 18:23:28 2025, MaxMem= 12348030976 cpu:               0.3 elap:               0.1
 (Enter /home/hhratchian/gaussian/gdv-20250101-j30+/gdv/local/l502.exe)
 Keep R1 ints in memory in symmetry-blocked form, NReq=47924202.
 FoFCou: FMM=F IPFlag=           0 FMFlag=           0 FMFlg1=           0
         NFxFlg=           0 DoJE=F BraDBF=F KetDBF=F FulRan=T
         wScrn=  0.000000 ICntrl=       600 IOpCl=  0 I1Cent=           0 NGrid=           0
         NMat0=    1 NMatS0=     28 NMatT0=    0 NMatD0=    1 NMtDS0=    0 NMtDT0=    0
 Petite list used in FoFCou.
 Closed shell SCF:
 Using DIIS extrapolation, IDIIS=  1040.
 NGot= 12348030976 LenX= 12348027978 LenY= 12348027096
 Requested convergence on RMS density matrix=1.00D-08 within  32 cycles.
 Requested convergence on MAX density matrix=1.00D-06.
 Requested convergence on             energy=1.00D-06.
 No special actions if energy rises.
 
  Hrant - CycOpn.
 

 Cycle   1  Pass 1  IDiag  1:
 E= -75.2574563462194    
 DIIS: error= 2.00D-13 at cycle   1 NSaved=   1.
 NSaved= 1 IEnMin= 1 EnMin= -75.2574563462194     IErMin= 1 ErrMin= 2.00D-13
 ErrMax= 2.00D-13  0.00D+00 EMaxC= 1.00D-01 BMatC= 1.34D-25 BMatP= 1.34D-25
 Rises=F IDIUse=1 WtCom= 1.00D+00 WtEn= 0.00D+00
 Coeff-Com:  0.100D+01
 Coeff:      0.100D+01
 Gap=     0.668 Goal=   None    Shift=    0.000
 Skip diagonalization as Alpha Fock matrix is already diagonal.
 RMSDP=9.54D-32 MaxDP=4.09D-31              OVMax= 0.00D+00

 SCF Done:  E(RCAM-B3LYP) =  -75.2574563462     A.U. after    1 cycles
            NFock=  1  Conv=0.95D-31     -V/T= 2.0076
 KE=          74.689700 PE=        -197.890061 EE=          38.299326
 Leave Link  502 at Wed Sep  3 18:23:28 2025, MaxMem= 12348030976 cpu:               3.5 elap:               0.1
 (Enter /home/hhratchian/gaussian/gdv-20250101-j30+/gdv/l508.exe)
 QCSCF skips out because SCF is already converged.
 Leave Link  508 at Wed Sep  3 18:23:28 2025, MaxMem= 12348030976 cpu:               0.1 elap:               0.0
 (Enter /home/hhratchian/gaussian/gdv-20250101-j30+/gdv/l601.exe)
 Copying SCF densities to generalized density rwf, IOpCl= 0 IROHF=0.
 
 **********************************************************************
 
               Population analysis using the SCF Density.
 
 **********************************************************************
 
 Orbital symmetries:
       Occupied  (A1) (A1) (B2) (A1) (B1)
       Virtual   (A1) (B2)
 The electronic state is 1-A1.
 Alpha  occ. eigenvalues --      -18.88766      -1.02457      -0.54257      -0.27312      -0.21155
 Alpha virt. eigenvalues --        0.45635       0.61787
          Condensed to atoms (all electrons):
               1          2          3
     1  O    7.871803   0.278750   0.278750
     2  H    0.278750   0.555916  -0.049317
     3  H    0.278750  -0.049317   0.555916
 Mulliken charges:
               1
     1  O   -0.429303
     2  H    0.214651
     3  H    0.214651
 Sum of Mulliken charges=  -0.00000
 Mulliken charges with hydrogens summed into heavy atoms:
               1
     1  O   -0.000000
 Electronic spatial extent (au):  <R**2>=             17.2029
 Charge=             -0.0000 electrons
 Dipole moment (field-independent basis, Debye):
    X=             -0.0000    Y=             -0.0000    Z=             -1.7151  Tot=              1.7151
 Quadrupole moment (field-independent basis, Debye-Ang):
   XX=             -6.0447   YY=             -4.1202   ZZ=             -5.4909
   XY=              0.0000   XZ=              0.0000   YZ=              0.0000
 Traceless Quadrupole moment (field-independent basis, Debye-Ang):
   XX=             -0.8261   YY=              1.0984   ZZ=             -0.2723
   XY=              0.0000   XZ=              0.0000   YZ=              0.0000
 Octapole moment (field-independent basis, Debye-Ang**2):
  XXX=              0.0000  YYY=             -0.0000  ZZZ=             -0.2249  XYY=             -0.0000
  XXY=             -0.0000  XXZ=             -0.0320  XZZ=              0.0000  YZZ=              0.0000
  YYZ=             -0.5716  XYZ=             -0.0000
 Hexadecapole moment (field-independent basis, Debye-Ang**3):
 XXXX=             -3.1776 YYYY=             -6.0982 ZZZZ=             -4.3743 XXXY=             -0.0000
 XXXZ=             -0.0000 YYYX=             -0.0000 YYYZ=             -0.0000 ZZZX=             -0.0000
 ZZZY=              0.0000 XXYY=             -1.7200 XXZZ=             -1.2798 YYZZ=             -1.6139
 XXYZ=             -0.0000 YYXZ=              0.0000 ZZXY=             -0.0000
 N-N=           9.643579 E-N=        -197.890061  KE=          74.689700
 Symmetry A1   KE=          66.675980
 Symmetry A2   KE=           0.000000
 Symmetry B1   KE=           5.057462
 Symmetry B2   KE=           2.956257
 No NMR shielding tensors so no spin-rotation constants.
 Leave Link  601 at Wed Sep  3 18:23:28 2025, MaxMem= 12348030976 cpu:               2.3 elap:               0.1
 (Enter /home/hhratchian/gaussian/gdv-20250101-j30+/gdv/l701.exe)
 ... and contract with generalized density number  0.
 Compute integral first derivatives.
 Leave Link  701 at Wed Sep  3 18:23:28 2025, MaxMem= 12348030976 cpu:               2.0 elap:               0.1
 (Enter /home/hhratchian/gaussian/gdv-20250101-j30+/gdv/l702.exe)
 L702 exits ... SP integral derivatives will be done elsewhere.
 Leave Link  702 at Wed Sep  3 18:23:29 2025, MaxMem= 12348030976 cpu:               0.1 elap:               0.0
 (Enter /home/hhratchian/gaussian/gdv-20250101-j30+/gdv/l703.exe)
 Integral derivatives from FoFJK, PRISM(SPDF).
 Compute integral first derivatives, UseDBF=F ICtDFT=           0.
 Calling FoFJK, ICntrl=      2127 FMM=F ISym2X=1 I1Cent= 0 IOpClX= 0 NMat=1 NMatS=1 NMatT=0.
 FoFJK:  IHMeth= 1 ICntrl=    2127 DoSepK=T KAlg= 0 I1Cent=           0 FoldK=F
 IRaf=         1 NMat=       1 IRICut=       1 DoRegI=T DoRafI=F ISym2E= 1 IDoP0=0 IntGTp=1.
 FoFCou: FMM=F IPFlag=           0 FMFlag=      100000 FMFlg1=         800
         NFxFlg=           0 DoJE=F BraDBF=F KetDBF=F FulRan=T
         wScrn=  0.000000 ICntrl=      2527 IOpCl=  0 I1Cent=           0 NGrid=           0
         NMat0=    1 NMatS0=      1 NMatT0=    0 NMatD0=    1 NMtDS0=    0 NMtDT0=    0
 Petite list used in FoFCou.
 Leave Link  703 at Wed Sep  3 18:23:29 2025, MaxMem= 12348030976 cpu:               4.3 elap:               0.2
 (Enter /home/hhratchian/gaussian/gdv-20250101-j30+/gdv/l716.exe)
 Dipole        =-4.31472279D-17 0.00000000D+00-6.74766810D-01
 ***** Axes restored to original set *****
 -------------------------------------------------------------------
 Center     Atomic                   Forces (Hartrees/Bohr)
 Number     Number              X              Y              Z
 -------------------------------------------------------------------
      1        8          -0.000000000   -0.000000000   -0.188819595
      2        1           0.092572917    0.000000000    0.094409797
      3        1          -0.092572917    0.000000000    0.094409797
 -------------------------------------------------------------------
 Cartesian Forces:  Max     0.188819595 RMS     0.088580628
 Leave Link  716 at Wed Sep  3 18:23:29 2025, MaxMem= 12348030976 cpu:               0.1 elap:               0.0
 (Enter /home/hhratchian/gaussian/gdv-20250101-j30+/gdv/l103.exe)

 GradGradGradGradGradGradGradGradGradGradGradGradGradGradGradGradGradGrad
 Berny optimization.
 FormGI is forming the generalized inverse of G from B-inverse, IUseBI=4.
 NTrRot=    -1 NTRed=     3 NAtoms=     3 NSkip=     0 NRank=     3 IsLin=F EigSml=8.5452D-01
 Internal  Forces:  Max     0.129358296 RMS     0.109068350
 Search for a local minimum.
 Step number   1 out of a maximum of   20
 All quantities printed in internal units (Hartrees-Bohrs-Radians)
 RMS Force = .10907D+00 SwitMx=.10000D-02 MixMth= 1
 Mixed Optimization -- RFO/linear search
 Second derivative matrix not updated -- first step.
 The second derivative matrix:
                          R1        R2        A1
           R1           0.67525
           R2           0.00000   0.67525
           A1           0.00000   0.00000   0.16000
 ITU=  0
     Eigenvalues ---    0.16000   0.67525   0.67525
 RFO step:  Lambda=-5.60427957D-02 EMin= 1.60000000D-01
 Linear search not attempted -- first point.
 Maximum step size (   0.300) exceeded in Quadratic search.
    -- Step size scaled by   0.904
 GrdOpt: GIC=T ITstSp=  0 NP=   1 DidLin=F DidDIS=F IDoGRo=0 IDoRot=0
         ISwap=1 XLin= 0.000 DXMaxT= 0.300
 Iteration  1 RMS(Cart)=  0.06522626 RMS(Int)=  0.01174721
 Iteration  2 RMS(Cart)=  0.00791055 RMS(Int)=  0.00007005
 Iteration  3 RMS(Cart)=  0.00002668 RMS(Int)=  0.00000000
 Iteration  4 RMS(Cart)=  0.00000000 RMS(Int)=  0.00000000
 ClnCor:  largest displacement from symmetrization is 4.97D-16 for atom     3.
 Variable       Old X    -DE/DX   Delta X   Delta X   Delta X     New X
                                 (Linear)    (Quad)   (Total)
    R1        1.72139   0.12936   0.00000   0.15989   0.15989   1.88128
    R2        1.72139   0.12936   0.00000   0.15989   0.15989   1.88128
    A1        1.96824  -0.04712   0.00000  -0.19716  -0.19716   1.77108
         Item               Value     Threshold  Converged?
 Maximum Force            0.129358     0.000450     NO 
 RMS     Force            0.109068     0.000300     NO 
 Maximum Displacement     0.158434     0.001800     NO 
 RMS     Displacement     0.113599     0.001200     NO 
 Predicted change in Energy=-3.028451D-02
 Lowest energy point so far.  Saving SCF results.
 GradGradGradGradGradGradGradGradGradGradGradGradGradGradGradGradGradGrad

 Leave Link  103 at Wed Sep  3 18:23:29 2025, MaxMem= 12348030976 cpu:               0.2 elap:               0.0
 (Enter /home/hhratchian/gaussian/gdv-20250101-j30+/gdv/l202.exe)
                          Input orientation:                          
 ---------------------------------------------------------------------
 Center     Atomic      Atomic             Coordinates (Angstroms)
 Number     Number       Type             X           Y           Z
 ---------------------------------------------------------------------
      1          8           0       -0.000000    0.000000   -0.083840
      2          1           0        0.770798    0.000000    0.546204
      3          1           0       -0.770798   -0.000000    0.546204
 ---------------------------------------------------------------------
                    Distance matrix (angstroms):
                    1          2          3
     1  O    0.000000
     2  H    0.995532   0.000000
     3  H    0.995532   1.541596   0.000000
 Stoichiometry    H2O
 Framework group  C2V[C2(O),SGV(H2)]
 Deg. of freedom     2
 Full point group                 C2V     NOp   4
 RotChk:  IX=0 Diff= 9.43D-16
 Largest Abelian subgroup         C2V     NOp   4
 Largest concise Abelian subgroup C2      NOp   2
                         Standard orientation:                         
 ---------------------------------------------------------------------
 Center     Atomic      Atomic             Coordinates (Angstroms)
 Number     Number       Type             X           Y           Z
 ---------------------------------------------------------------------
      1          8           0       -0.000000   -0.000000    0.126009
      2          1           0       -0.000000    0.770798   -0.504035
      3          1           0       -0.000000   -0.770798   -0.504035
 ---------------------------------------------------------------------
 Rotational constants (GHZ):         711.2241111         422.0081059         264.8551069
 Leave Link  202 at Wed Sep  3 18:23:29 2025, MaxMem= 12348030976 cpu:               0.4 elap:               0.0
 (Enter /home/hhratchian/gaussian/gdv-20250101-j30+/gdv/local/l301.exe)
 Basis read from rwf:  (5D, 7F)
 No pseudopotential information found on rwf file.
 There are     4 symmetry adapted cartesian basis functions of A1  symmetry.
 There are     0 symmetry adapted cartesian basis functions of A2  symmetry.
 There are     1 symmetry adapted cartesian basis functions of B1  symmetry.
 There are     2 symmetry adapted cartesian basis functions of B2  symmetry.
 There are     4 symmetry adapted basis functions of A1  symmetry.
 There are     0 symmetry adapted basis functions of A2  symmetry.
 There are     1 symmetry adapted basis functions of B1  symmetry.
 There are     2 symmetry adapted basis functions of B2  symmetry.
     7 basis functions,    21 primitive gaussians,     7 cartesian basis functions
     5 alpha electrons        5 beta electrons
       nuclear repulsion energy         8.8480986720 Hartrees.
 IExCor=   2004019 DFT=T Ex+Corr=CAM-B3LYP ScaHFX=  1.000000
 ScaDFX=  1.000000  1.000000  1.000000  0.810000  1.000000  0.000000
 ScaDFX=  0.000000  0.000000  0.000000  0.000000  0.000000  0.000000
 Grid=SuperFine IRanWt=     -1 IRanGd=            0 ICorTp=0 IEDCtl=  2004
 HFx  wShort=  0.000000 wLong=  0.330000 cFull=  0.190000 cShort=  0.000000 cLong=  0.460000
 DFx  wShort=  0.330000 wLong=  0.000000 cFull=  0.350000 cShort=  0.460000 cLong=  0.000000
 NAtoms=    3 NActive=    3 NUniq=    2 SFac= 2.25D+00 NAtFMM=   60 NAOKFM=F Big=F
 Integral buffers will be    131072 words long.
 Raffenetti 2 integral format.
 Two-electron integral symmetry is turned on.
 No density basis found on file    724.
 Leave Link  301 at Wed Sep  3 18:23:29 2025, MaxMem= 12348030976 cpu:               0.2 elap:               0.1
 (Enter /home/hhratchian/gaussian/gdv-20250101-j30+/gdv/l302.exe)
 NPDir=0 NMtPBC=     1 NCelOv=     1 NCel=       1 NClECP=     1 NCelD=      1
         NCelK=      1 NCelE2=     1 NClLst=     1 CellRange=     0.0.
 One-electron integrals computed using PRISM.
 One-electron integral symmetry used in STVInt
 NBasis=     7 RedAO= T EigKep=  3.67D-01  NBF=     4     0     1     2
 NBsUse=     7 1.00D-06 EigRej= -1.00D+00 NBFU=     4     0     1     2
 Precomputing XC quadrature grid using
 IXCGrd=   9 Grid=SuperFine IRanWt=          -1 IRanGd=           0 AccXCQ= 0.00D+00.
 Generated NRdTot=       0 NPtTot=      186243 NUsed=           0 NTot=          64
 NSgBfM=     7     7     7     7     7 MxSgAt=     3 MxSgA2=     3 SizInc=   0.000
 NMBTot=     1262 MaxBatPerAtom=      123 MaxMicBPerAtom=      429 NBfPt=             1125283.
 Leave Link  302 at Wed Sep  3 18:23:29 2025, MaxMem= 12348030976 cpu:               2.0 elap:               0.1
 (Enter /home/hhratchian/gaussian/gdv-20250101-j30+/gdv/l303.exe)
 DipDrv:  MaxL=1.
 Leave Link  303 at Wed Sep  3 18:23:29 2025, MaxMem= 12348030976 cpu:               0.2 elap:               0.0
 (Enter /home/hhratchian/gaussian/gdv-20250101-j30+/gdv/l401.exe)
 Initial guess from the checkpoint file:  "H2O_CAM-B3LYP_STO-3G_q0_m1.chk"
 B after Tr=    -0.000000   -0.000000   -0.000000
         Rot=    1.000000   -0.000000    0.000000   -0.000000 Ang=   0.00 deg.
 AO Guess basis will be translated and rotated to current coordinates.
 JPrj=2 DoOrth=T DoCkMO=T.
 Initial guess orbital symmetries:
       Occupied  (A1) (A1) (B2) (A1) (B1)
       Virtual   (A1) (B2)
 The electronic state of the initial guess is 1-A1.
 Generating alternative initial guess.
 ExpMin= 1.69D-01 ExpMax= 1.31D+02 ExpMxC= 1.31D+02 IAcc=3 Grid=SuperFine AccDes= 0.00D+00
 Harris functional with IExCor=10009 and Grid=SuperFine diagonalized for initial guess.
 HarFok:  IExCor=   10009 AccDes= 0.00D+00 Grid=SuperFine IDoV= 1 UseB2=F ITyADJ=14 ICtDFT=  3500011
 FoFCou: FMM=F IPFlag=           0 FMFlag=      100000 FMFlg1=           0
         NFxFlg=           0 DoJE=T BraDBF=F KetDBF=T FulRan=T
         wScrn=  0.000000 ICntrl=       500 IOpCl=  0 I1Cent=   200000004 NGrid=           0
         NMat0=    1 NMatS0=      1 NMatT0=    0 NMatD0=    1 NMtDS0=    0 NMtDT0=    0
 Petite list used in FoFCou.
 Harris En= -75.3122231010367    
 Leave Link  401 at Wed Sep  3 18:23:29 2025, MaxMem= 12348030976 cpu:               4.1 elap:               0.2
 (Enter /home/hhratchian/gaussian/gdv-20250101-j30+/gdv/local/l502.exe)
 Keep R1 ints in memory in symmetry-blocked form, NReq=47924202.
 FoFCou: FMM=F IPFlag=           0 FMFlag=           0 FMFlg1=           0
         NFxFlg=           0 DoJE=F BraDBF=F KetDBF=F FulRan=T
         wScrn=  0.000000 ICntrl=       600 IOpCl=  0 I1Cent=           0 NGrid=           0
         NMat0=    1 NMatS0=     28 NMatT0=    0 NMatD0=    1 NMtDS0=    0 NMtDT0=    0
 Petite list used in FoFCou.
 Closed shell SCF:
 Using DIIS extrapolation, IDIIS=  1040.
 NGot= 12348030976 LenX= 12348027978 LenY= 12348027096
 Requested convergence on RMS density matrix=1.00D-08 within  32 cycles.
 Requested convergence on MAX density matrix=1.00D-06.
 Requested convergence on             energy=1.00D-06.
 No special actions if energy rises.
 Integral accuracy reduced to 1.0D-05 until final iterations.
 
  Hrant - CycOpn.
 

 Cycle   1  Pass 0  IDiag  1:
 E= -75.2809612241037    
 DIIS: error= 2.09D-02 at cycle   1 NSaved=   1.
 NSaved= 1 IEnMin= 1 EnMin= -75.2809612241037     IErMin= 1 ErrMin= 2.09D-02
 ErrMax= 2.09D-02  0.00D+00 EMaxC= 1.00D-01 BMatC= 1.43D-03 BMatP= 1.43D-03
 Rises=F IDIUse=3 WtCom= 7.91D-01 WtEn= 2.09D-01
 Coeff-Com:  0.100D+01
 Coeff-En:   0.100D+01
 Coeff:      0.100D+01
 Recover alternate guess density for next cycle.
 RMSDP=2.80D-02 MaxDP=1.20D-01              OVMax= 0.00D+00

 Cycle   2  Pass 0  IDiag  1:
 E= -75.2383481652238     Delta-E=        0.042613058880 Rises=F Damp=F AM=F Ri=F Fa=F
 Switch densities from cycles 1 and 2 for lowest energy.
 DIIS: error= 7.23D-02 at cycle   2 NSaved=   2.
 NSaved= 2 IEnMin= 1 EnMin= -75.2809612241037     IErMin= 1 ErrMin= 2.09D-02
 ErrMax= 7.23D-02  0.00D+00 EMaxC= 1.00D+00 BMatC= 1.70D-02 BMatP= 1.43D-03
 Rises=T IDIUse=1 WtCom= 1.00D+00 WtEn= 0.00D+00
 Coeff-Com:  0.116D+01-0.156D+00
 Coeff:      0.116D+01-0.156D+00
 Gap=     0.596 Goal=   None    Shift=    0.000
 RMSDP=1.91D-02 MaxDP=6.30D-02 DE= 4.26D-02 OVMax= 0.00D+00

 Cycle   3  Pass 0  IDiag  1:
 E= -75.2865643377150     Delta-E=       -0.048216172491 Rises=F Damp=F AM=F Ri=F Fa=F
 DIIS: error= 5.55D-03 at cycle   3 NSaved=   3.
 NSaved= 3 IEnMin= 3 EnMin= -75.2865643377150     IErMin= 3 ErrMin= 5.55D-03
 ErrMax= 5.55D-03  0.00D+00 EMaxC= 1.00D+00 BMatC= 1.01D-04 BMatP= 1.43D-03
 Rises=F IDIUse=1 WtCom= 1.00D+00 WtEn= 0.00D+00
 Coeff-Com: -0.218D+00 0.105D+00 0.111D+01
 Coeff:     -0.218D+00 0.105D+00 0.111D+01
 Gap=     0.608 Goal=   None    Shift=    0.000
 RMSDP=4.89D-03 MaxDP=1.58D-02 DE=-4.82D-02 OVMax= 0.00D+00

 Cycle   4  Pass 0  IDiag  1:
 E= -75.2869766826323     Delta-E=       -0.000412344917 Rises=F Damp=F AM=F Ri=F Fa=F
 DIIS: error= 5.69D-04 at cycle   4 NSaved=   4.
 NSaved= 4 IEnMin= 4 EnMin= -75.2869766826323     IErMin= 4 ErrMin= 5.69D-04
 ErrMax= 5.69D-04  0.00D+00 EMaxC= 1.00D+00 BMatC= 9.80D-07 BMatP= 1.01D-04
 Rises=F IDIUse=1 WtCom= 1.00D+00 WtEn= 0.00D+00
 Coeff-Com:  0.345D-02-0.298D-02-0.136D+00 0.114D+01
 Coeff:      0.345D-02-0.298D-02-0.136D+00 0.114D+01
 Gap=     0.609 Goal=   None    Shift=    0.000
 RMSDP=6.26D-04 MaxDP=1.85D-03 DE=-4.12D-04 OVMax= 0.00D+00

 Cycle   5  Pass 0  IDiag  1:
 E= -75.2869816603313     Delta-E=       -0.000004977699 Rises=F Damp=F AM=F Ri=F Fa=F
 DIIS: error= 1.26D-05 at cycle   5 NSaved=   5.
 NSaved= 5 IEnMin= 5 EnMin= -75.2869816603313     IErMin= 5 ErrMin= 1.26D-05
 ErrMax= 1.26D-05  0.00D+00 EMaxC= 1.00D+00 BMatC= 5.62D-10 BMatP= 9.80D-07
 Rises=F IDIUse=1 WtCom= 1.00D+00 WtEn= 0.00D+00
 Coeff-Com:  0.154D-03 0.893D-04 0.117D-01-0.125D+00 0.111D+01
 Coeff:      0.154D-03 0.893D-04 0.117D-01-0.125D+00 0.111D+01
 Gap=     0.609 Goal=   None    Shift=    0.000
 RMSDP=1.21D-05 MaxDP=3.81D-05 DE=-4.98D-06 OVMax= 0.00D+00

 Cycle   6  Pass 0  IDiag  1:
 E= -75.2869816630305     Delta-E=       -0.000000002699 Rises=F Damp=F AM=F Ri=F Fa=F
 DIIS: error= 2.70D-07 at cycle   6 NSaved=   6.
 NSaved= 6 IEnMin= 6 EnMin= -75.2869816630305     IErMin= 6 ErrMin= 2.70D-07
 ErrMax= 2.70D-07  0.00D+00 EMaxC= 1.00D+00 BMatC= 2.63D-13 BMatP= 5.62D-10
 Rises=F IDIUse=1 WtCom= 1.00D+00 WtEn= 0.00D+00
 Coeff-Com:  0.323D-05-0.158D-04-0.824D-03 0.795D-02-0.618D-01 0.105D+01
 Coeff:      0.323D-05-0.158D-04-0.824D-03 0.795D-02-0.618D-01 0.105D+01
 Gap=     0.609 Goal=   None    Shift=    0.000
 RMSDP=2.48D-07 MaxDP=7.64D-07 DE=-2.70D-09 OVMax= 0.00D+00

 Initial convergence to 1.0D-05 achieved.  Increase integral accuracy.
 Cycle   7  Pass 1  IDiag  1:
 E= -75.2869817042664     Delta-E=       -0.000000041236 Rises=F Damp=F AM=F Ri=F Fa=F
 DIIS: error= 1.40D-08 at cycle   1 NSaved=   1.
 NSaved= 1 IEnMin= 1 EnMin= -75.2869817042664     IErMin= 1 ErrMin= 1.40D-08
 ErrMax= 1.40D-08  0.00D+00 EMaxC= 1.00D+00 BMatC= 8.85D-16 BMatP= 8.85D-16
 Rises=F IDIUse=1 WtCom= 1.00D+00 WtEn= 0.00D+00
 Coeff-Com:  0.100D+01
 Coeff:      0.100D+01
 Gap=     0.609 Goal=   None    Shift=    0.000
 RMSDP=2.48D-07 MaxDP=7.64D-07 DE=-4.12D-08 OVMax= 0.00D+00

 Cycle   8  Pass 1  IDiag  1:
 E= -75.2869817042664     Delta-E=        0.000000000000 Rises=F Damp=F AM=F Ri=F Fa=F
 DIIS: error= 8.61D-09 at cycle   2 NSaved=   2.
 NSaved= 2 IEnMin= 1 EnMin= -75.2869817042664     IErMin= 2 ErrMin= 8.61D-09
 ErrMax= 8.61D-09  0.00D+00 EMaxC= 1.00D+00 BMatC= 2.56D-16 BMatP= 8.85D-16
 Rises=F IDIUse=1 WtCom= 1.00D+00 WtEn= 0.00D+00
 Coeff-Com:  0.326D+00 0.674D+00
 Coeff:      0.326D+00 0.674D+00
 Gap=     0.609 Goal=   None    Shift=    0.000
 RMSDP=3.81D-09 MaxDP=1.38D-08 DE= 1.42D-14 OVMax= 0.00D+00

 SCF Done:  E(RCAM-B3LYP) =  -75.2869817043     A.U. after    8 cycles
            NFock=  8  Conv=0.38D-08     -V/T= 2.0103
 KE=          74.516250 PE=        -196.259603 EE=          37.608273
 Leave Link  502 at Wed Sep  3 18:23:29 2025, MaxMem= 12348030976 cpu:               6.2 elap:               0.2
 (Enter /home/hhratchian/gaussian/gdv-20250101-j30+/gdv/l508.exe)
 QCSCF skips out because SCF is already converged.
 Leave Link  508 at Wed Sep  3 18:23:29 2025, MaxMem= 12348030976 cpu:               0.1 elap:               0.0
 (Enter /home/hhratchian/gaussian/gdv-20250101-j30+/gdv/l701.exe)
 ... and contract with generalized density number  0.
 Compute integral first derivatives.
 Leave Link  701 at Wed Sep  3 18:23:30 2025, MaxMem= 12348030976 cpu:               1.9 elap:               0.1
 (Enter /home/hhratchian/gaussian/gdv-20250101-j30+/gdv/l702.exe)
 L702 exits ... SP integral derivatives will be done elsewhere.
 Leave Link  702 at Wed Sep  3 18:23:30 2025, MaxMem= 12348030976 cpu:               0.2 elap:               0.0
 (Enter /home/hhratchian/gaussian/gdv-20250101-j30+/gdv/l703.exe)
 Integral derivatives from FoFJK, PRISM(SPDF).
 Compute integral first derivatives, UseDBF=F ICtDFT=           0.
 Calling FoFJK, ICntrl=      2127 FMM=F ISym2X=1 I1Cent= 0 IOpClX= 0 NMat=1 NMatS=1 NMatT=0.
 FoFJK:  IHMeth= 1 ICntrl=    2127 DoSepK=T KAlg= 0 I1Cent=           0 FoldK=F
 IRaf=         1 NMat=       1 IRICut=       1 DoRegI=T DoRafI=F ISym2E= 1 IDoP0=0 IntGTp=1.
 FoFCou: FMM=F IPFlag=           0 FMFlag=      100000 FMFlg1=         800
         NFxFlg=           0 DoJE=F BraDBF=F KetDBF=F FulRan=T
         wScrn=  0.000000 ICntrl=      2527 IOpCl=  0 I1Cent=           0 NGrid=           0
         NMat0=    1 NMatS0=      1 NMatT0=    0 NMatD0=    1 NMtDS0=    0 NMtDT0=    0
 Petite list used in FoFCou.
 Leave Link  703 at Wed Sep  3 18:23:30 2025, MaxMem= 12348030976 cpu:               4.5 elap:               0.1
 (Enter /home/hhratchian/gaussian/gdv-20250101-j30+/gdv/l716.exe)
 Dipole        =-3.49910314D-17 0.00000000D+00-6.52548875D-01
 ***** Axes restored to original set *****
 -------------------------------------------------------------------
 Center     Atomic                   Forces (Hartrees/Bohr)
 Number     Number              X              Y              Z
 -------------------------------------------------------------------
      1        8          -0.000000000   -0.000000000   -0.041805142
      2        1           0.013177613    0.000000000    0.020902571
      3        1          -0.013177613    0.000000000    0.020902571
 -------------------------------------------------------------------
 Cartesian Forces:  Max     0.041805142 RMS     0.018162244
 Leave Link  716 at Wed Sep  3 18:23:30 2025, MaxMem= 12348030976 cpu:               0.1 elap:               0.0
 (Enter /home/hhratchian/gaussian/gdv-20250101-j30+/gdv/l103.exe)

 GradGradGradGradGradGradGradGradGradGradGradGradGradGradGradGradGradGrad
 Berny optimization.
 Using GEDIIS/GDIIS optimizer.
 FormGI is forming the generalized inverse of G from B-inverse, IUseBI=4.
 NTrRot=    -1 NTRed=     3 NAtoms=     3 NSkip=     0 NRank=     3 IsLin=F EigSml=7.3399D-01
 Internal  Forces:  Max     0.023431493 RMS     0.020943143
 Search for a local minimum.
 Step number   2 out of a maximum of   20
 All quantities printed in internal units (Hartrees-Bohrs-Radians)
 RMS Force = .20943D-01 SwitMx=.10000D-02 MixMth= 1
 Mixed Optimization -- RFO/linear search
 Update second derivatives using D2CorX and points    1    2
 DE= -2.95D-02 DEPred=-3.03D-02 R= 9.75D-01
 TightC=F SS=  1.41D+00  RLast= 3.00D-01 DXNew= 5.0454D-01 9.0000D-01
 Trust test= 9.75D-01 RLast= 3.00D-01 DXMaxT set to 5.05D-01
 The second derivative matrix:
                          R1        R2        A1
           R1           0.66790
           R2          -0.00735   0.66790
           A1          -0.00158  -0.00158   0.16160
 ITU=  1  0
 Use linear search instead of GDIIS.
     Eigenvalues ---    0.16159   0.66056   0.67525
 RFO step:  Lambda=-7.00160048D-04 EMin= 1.61590467D-01
 Quartic linear search produced a step of  0.31876.
 GrdOpt: GIC=T ITstSp=  0 NP=   2 DidLin=T DidDIS=F IDoGRo=0 IDoRot=0
         ISwap=1 XLin= 0.319 DXMaxT= 0.505
 Iteration  1 RMS(Cart)=  0.03704819 RMS(Int)=  0.00327919
 Iteration  2 RMS(Cart)=  0.00207812 RMS(Int)=  0.00000334
 Iteration  3 RMS(Cart)=  0.00000158 RMS(Int)=  0.00000000
 Iteration  4 RMS(Cart)=  0.00000000 RMS(Int)=  0.00000000
 ClnCor:  largest displacement from symmetrization is 3.14D-16 for atom     3.
 Variable       Old X    -DE/DX   Delta X   Delta X   Delta X     New X
                                 (Linear)    (Quad)   (Total)
    R1        1.88128   0.02343   0.05097  -0.00925   0.04172   1.92300
    R2        1.88128   0.02343   0.05097  -0.00925   0.04172   1.92300
    A1        1.77108  -0.01476  -0.06285  -0.06033  -0.12317   1.64791
         Item               Value     Threshold  Converged?
 Maximum Force            0.023431     0.000450     NO 
 RMS     Force            0.020943     0.000300     NO 
 Maximum Displacement     0.077156     0.001800     NO 
 RMS     Displacement     0.065970     0.001200     NO 
 Predicted change in Energy=-1.380985D-03
 Lowest energy point so far.  Saving SCF results.
 GradGradGradGradGradGradGradGradGradGradGradGradGradGradGradGradGradGrad

 Leave Link  103 at Wed Sep  3 18:23:30 2025, MaxMem= 12348030976 cpu:               0.2 elap:               0.0
 (Enter /home/hhratchian/gaussian/gdv-20250101-j30+/gdv/l202.exe)
                          Input orientation:                          
 ---------------------------------------------------------------------
 Center     Atomic      Atomic             Coordinates (Angstroms)
 Number     Number       Type             X           Y           Z
 ---------------------------------------------------------------------
      1          8           0       -0.000000    0.000000   -0.124669
      2          1           0        0.746761    0.000000    0.566618
      3          1           0       -0.746761   -0.000000    0.566618
 ---------------------------------------------------------------------
                    Distance matrix (angstroms):
                    1          2          3
     1  O    0.000000
     2  H    1.017610   0.000000
     3  H    1.017610   1.493523   0.000000
 Stoichiometry    H2O
 Framework group  C2V[C2(O),SGV(H2)]
 Deg. of freedom     2
 Full point group                 C2V     NOp   4
 RotChk:  IX=0 Diff= 6.16D-16
 Largest Abelian subgroup         C2V     NOp   4
 Largest concise Abelian subgroup C2      NOp   2
                         Standard orientation:                         
 ---------------------------------------------------------------------
 Center     Atomic      Atomic             Coordinates (Angstroms)
 Number     Number       Type             X           Y           Z
 ---------------------------------------------------------------------
      1          8           0        0.000000    0.000000    0.138257
      2          1           0       -0.000000    0.746761   -0.553030
      3          1           0       -0.000000   -0.746761   -0.553030
 ---------------------------------------------------------------------
 Rotational constants (GHZ):         590.7866477         449.6125371         255.3107379
 Leave Link  202 at Wed Sep  3 18:23:30 2025, MaxMem= 12348030976 cpu:               0.3 elap:               0.0
 (Enter /home/hhratchian/gaussian/gdv-20250101-j30+/gdv/local/l301.exe)
 Basis read from rwf:  (5D, 7F)
 No pseudopotential information found on rwf file.
 There are     4 symmetry adapted cartesian basis functions of A1  symmetry.
 There are     0 symmetry adapted cartesian basis functions of A2  symmetry.
 There are     1 symmetry adapted cartesian basis functions of B1  symmetry.
 There are     2 symmetry adapted cartesian basis functions of B2  symmetry.
 There are     4 symmetry adapted basis functions of A1  symmetry.
 There are     0 symmetry adapted basis functions of A2  symmetry.
 There are     1 symmetry adapted basis functions of B1  symmetry.
 There are     2 symmetry adapted basis functions of B2  symmetry.
     7 basis functions,    21 primitive gaussians,     7 cartesian basis functions
     5 alpha electrons        5 beta electrons
       nuclear repulsion energy         8.6746289999 Hartrees.
 IExCor=   2004019 DFT=T Ex+Corr=CAM-B3LYP ScaHFX=  1.000000
 ScaDFX=  1.000000  1.000000  1.000000  0.810000  1.000000  0.000000
 ScaDFX=  0.000000  0.000000  0.000000  0.000000  0.000000  0.000000
 Grid=SuperFine IRanWt=     -1 IRanGd=            0 ICorTp=0 IEDCtl=  2004
 HFx  wShort=  0.000000 wLong=  0.330000 cFull=  0.190000 cShort=  0.000000 cLong=  0.460000
 DFx  wShort=  0.330000 wLong=  0.000000 cFull=  0.350000 cShort=  0.460000 cLong=  0.000000
 NAtoms=    3 NActive=    3 NUniq=    2 SFac= 2.25D+00 NAtFMM=   60 NAOKFM=F Big=F
 Integral buffers will be    131072 words long.
 Raffenetti 2 integral format.
 Two-electron integral symmetry is turned on.
 No density basis found on file    724.
 Leave Link  301 at Wed Sep  3 18:23:30 2025, MaxMem= 12348030976 cpu:               0.2 elap:               0.1
 (Enter /home/hhratchian/gaussian/gdv-20250101-j30+/gdv/l302.exe)
 NPDir=0 NMtPBC=     1 NCelOv=     1 NCel=       1 NClECP=     1 NCelD=      1
         NCelK=      1 NCelE2=     1 NClLst=     1 CellRange=     0.0.
 One-electron integrals computed using PRISM.
 One-electron integral symmetry used in STVInt
 NBasis=     7 RedAO= T EigKep=  3.82D-01  NBF=     4     0     1     2
 NBsUse=     7 1.00D-06 EigRej= -1.00D+00 NBFU=     4     0     1     2
 Precomputing XC quadrature grid using
 IXCGrd=   9 Grid=SuperFine IRanWt=          -1 IRanGd=           0 AccXCQ= 0.00D+00.
 Generated NRdTot=       0 NPtTot=      186323 NUsed=           0 NTot=          64
 NSgBfM=     7     7     7     7     7 MxSgAt=     3 MxSgA2=     3 SizInc=   0.000
 NMBTot=     1272 MaxBatPerAtom=      123 MaxMicBPerAtom=      431 NBfPt=             1126593.
 Leave Link  302 at Wed Sep  3 18:23:30 2025, MaxMem= 12348030976 cpu:               2.6 elap:               0.1
 (Enter /home/hhratchian/gaussian/gdv-20250101-j30+/gdv/l303.exe)
 DipDrv:  MaxL=1.
 Leave Link  303 at Wed Sep  3 18:23:30 2025, MaxMem= 12348030976 cpu:               0.2 elap:               0.0
 (Enter /home/hhratchian/gaussian/gdv-20250101-j30+/gdv/l401.exe)
 Initial guess from the checkpoint file:  "H2O_CAM-B3LYP_STO-3G_q0_m1.chk"
 B after Tr=     0.000000   -0.000000    0.000000
         Rot=    1.000000   -0.000000   -0.000000    0.000000 Ang=   0.00 deg.
 AO Guess basis will be translated and rotated to current coordinates.
 JPrj=2 DoOrth=T DoCkMO=T.
 Initial guess orbital symmetries:
       Occupied  (A1) (A1) (B2) (A1) (B1)
       Virtual   (A1) (B2)
 The electronic state of the initial guess is 1-A1.
 Generating alternative initial guess.
 ExpMin= 1.69D-01 ExpMax= 1.31D+02 ExpMxC= 1.31D+02 IAcc=3 Grid=SuperFine AccDes= 0.00D+00
 Harris functional with IExCor=10009 and Grid=SuperFine diagonalized for initial guess.
 HarFok:  IExCor=   10009 AccDes= 0.00D+00 Grid=SuperFine IDoV= 1 UseB2=F ITyADJ=14 ICtDFT=  3500011
 FoFCou: FMM=F IPFlag=           0 FMFlag=      100000 FMFlg1=           0
         NFxFlg=           0 DoJE=T BraDBF=F KetDBF=T FulRan=T
         wScrn=  0.000000 ICntrl=       500 IOpCl=  0 I1Cent=   200000004 NGrid=           0
         NMat0=    1 NMatS0=      1 NMatT0=    0 NMatD0=    1 NMtDS0=    0 NMtDT0=    0
 Petite list used in FoFCou.
 Harris En= -75.3092434945592    
 Leave Link  401 at Wed Sep  3 18:23:30 2025, MaxMem= 12348030976 cpu:               3.9 elap:               0.2
 (Enter /home/hhratchian/gaussian/gdv-20250101-j30+/gdv/local/l502.exe)
 Keep R1 ints in memory in symmetry-blocked form, NReq=47924202.
 FoFCou: FMM=F IPFlag=           0 FMFlag=           0 FMFlg1=           0
         NFxFlg=           0 DoJE=F BraDBF=F KetDBF=F FulRan=T
         wScrn=  0.000000 ICntrl=       600 IOpCl=  0 I1Cent=           0 NGrid=           0
         NMat0=    1 NMatS0=     28 NMatT0=    0 NMatD0=    1 NMtDS0=    0 NMtDT0=    0
 Petite list used in FoFCou.
 Closed shell SCF:
 Using DIIS extrapolation, IDIIS=  1040.
 NGot= 12348030976 LenX= 12348027978 LenY= 12348027096
 Requested convergence on RMS density matrix=1.00D-08 within  32 cycles.
 Requested convergence on MAX density matrix=1.00D-06.
 Requested convergence on             energy=1.00D-06.
 No special actions if energy rises.
 Integral accuracy reduced to 1.0D-05 until final iterations.
 
  Hrant - CycOpn.
 

 Cycle   1  Pass 0  IDiag  1:
 E= -75.2873539298418    
 DIIS: error= 6.88D-03 at cycle   1 NSaved=   1.
 NSaved= 1 IEnMin= 1 EnMin= -75.2873539298418     IErMin= 1 ErrMin= 6.88D-03
 ErrMax= 6.88D-03  0.00D+00 EMaxC= 1.00D-01 BMatC= 1.44D-04 BMatP= 1.44D-04
 Rises=F IDIUse=3 WtCom= 9.43D-01 WtEn= 5.71D-02
 Coeff-Com:  0.100D+01
 Coeff-En:   0.100D+01
 Coeff:      0.100D+01
 Gap=     0.594 Goal=   None    Shift=    0.000
 GapD=    0.594 DampG=2.000 DampE=1.000 DampFc=2.0000 IDamp=-1.
 RMSDP=7.25D-03 MaxDP=2.50D-02              OVMax= 0.00D+00

 Cycle   2  Pass 0  IDiag  1:
 E= -75.2880099838197     Delta-E=       -0.000656053978 Rises=F Damp=F AM=F Ri=F Fa=F
 DIIS: error= 3.35D-03 at cycle   2 NSaved=   2.
 NSaved= 2 IEnMin= 2 EnMin= -75.2880099838197     IErMin= 2 ErrMin= 3.35D-03
 ErrMax= 3.35D-03  0.00D+00 EMaxC= 1.00D-01 BMatC= 3.03D-05 BMatP= 1.44D-04
 Rises=F IDIUse=3 WtCom= 9.81D-01 WtEn= 1.94D-02
 Coeff-Com:  0.202D+00 0.798D+00
 Coeff-En:   0.000D+00 0.100D+01
 Coeff:      0.198D+00 0.802D+00
 Gap=     0.601 Goal=   None    Shift=    0.000
 RMSDP=1.66D-03 MaxDP=6.69D-03 DE=-6.56D-04 OVMax= 0.00D+00

 Cycle   3  Pass 0  IDiag  1:
 E= -75.2880941487830     Delta-E=       -0.000084164963 Rises=F Damp=F AM=F Ri=F Fa=F
 DIIS: error= 6.43D-04 at cycle   3 NSaved=   3.
 NSaved= 3 IEnMin= 3 EnMin= -75.2880941487830     IErMin= 3 ErrMin= 6.43D-04
 ErrMax= 6.43D-04  0.00D+00 EMaxC= 1.00D-01 BMatC= 2.25D-06 BMatP= 3.03D-05
 Rises=F IDIUse=3 WtCom= 9.98D-01 WtEn= 1.63D-03
 Coeff-Com: -0.984D-01 0.103D+00 0.996D+00
 Coeff-En:   0.000D+00 0.000D+00 0.100D+01
 Coeff:     -0.982D-01 0.103D+00 0.996D+00
 Gap=     0.601 Goal=   None    Shift=    0.000
 RMSDP=8.41D-04 MaxDP=3.06D-03 DE=-8.42D-05 OVMax= 0.00D+00

 Cycle   4  Pass 0  IDiag  1:
 E= -75.2881049154672     Delta-E=       -0.000010766684 Rises=F Damp=F AM=F Ri=F Fa=F
 DIIS: error= 5.86D-05 at cycle   4 NSaved=   4.
 NSaved= 4 IEnMin= 4 EnMin= -75.2881049154672     IErMin= 4 ErrMin= 5.86D-05
 ErrMax= 5.86D-05  0.00D+00 EMaxC= 1.00D-01 BMatC= 9.67D-09 BMatP= 2.25D-06
 Rises=F IDIUse=1 WtCom= 1.00D+00 WtEn= 0.00D+00
 Coeff-Com:  0.685D-02-0.241D-01-0.106D+00 0.112D+01
 Coeff:      0.685D-02-0.241D-01-0.106D+00 0.112D+01
 Gap=     0.601 Goal=   None    Shift=    0.000
 RMSDP=6.46D-05 MaxDP=1.84D-04 DE=-1.08D-05 OVMax= 0.00D+00

 Cycle   5  Pass 0  IDiag  1:
 E= -75.2881049734582     Delta-E=       -0.000000057991 Rises=F Damp=F AM=F Ri=F Fa=F
 DIIS: error= 1.16D-06 at cycle   5 NSaved=   5.
 NSaved= 5 IEnMin= 5 EnMin= -75.2881049734582     IErMin= 5 ErrMin= 1.16D-06
 ErrMax= 1.16D-06  0.00D+00 EMaxC= 1.00D-01 BMatC= 5.98D-12 BMatP= 9.67D-09
 Rises=F IDIUse=1 WtCom= 1.00D+00 WtEn= 0.00D+00
 Coeff-Com:  0.489D-04 0.613D-03-0.209D-03-0.237D-01 0.102D+01
 Coeff:      0.489D-04 0.613D-03-0.209D-03-0.237D-01 0.102D+01
 Gap=     0.601 Goal=   None    Shift=    0.000
 RMSDP=5.97D-07 MaxDP=2.41D-06 DE=-5.80D-08 OVMax= 0.00D+00

 Initial convergence to 1.0D-05 achieved.  Increase integral accuracy.
 Cycle   6  Pass 1  IDiag  1:
 E= -75.2881048281110     Delta-E=        0.000000145347 Rises=F Damp=F AM=F Ri=F Fa=F
 DIIS: error= 6.94D-09 at cycle   1 NSaved=   1.
 NSaved= 1 IEnMin= 1 EnMin= -75.2881048281110     IErMin= 1 ErrMin= 6.94D-09
 ErrMax= 6.94D-09  0.00D+00 EMaxC= 1.00D-01 BMatC= 1.69D-16 BMatP= 1.69D-16
 Rises=F IDIUse=1 WtCom= 1.00D+00 WtEn= 0.00D+00
 Coeff-Com:  0.100D+01
 Coeff:      0.100D+01
 Gap=     0.601 Goal=   None    Shift=    0.000
 RMSDP=5.97D-07 MaxDP=2.41D-06 DE= 1.45D-07 OVMax= 0.00D+00

 Cycle   7  Pass 1  IDiag  1:
 E= -75.2881048281110     Delta-E=        0.000000000000 Rises=F Damp=F AM=F Ri=F Fa=F
 DIIS: error= 1.43D-09 at cycle   2 NSaved=   2.
 NSaved= 2 IEnMin= 1 EnMin= -75.2881048281110     IErMin= 2 ErrMin= 1.43D-09
 ErrMax= 1.43D-09  0.00D+00 EMaxC= 1.00D-01 BMatC= 1.22D-17 BMatP= 1.69D-16
 Rises=F IDIUse=1 WtCom= 1.00D+00 WtEn= 0.00D+00
 Coeff-Com:  0.737D-01 0.926D+00
 Coeff:      0.737D-01 0.926D+00
 Gap=     0.601 Goal=   None    Shift=    0.000
 RMSDP=1.84D-09 MaxDP=6.85D-09 DE= 0.00D+00 OVMax= 0.00D+00

 SCF Done:  E(RCAM-B3LYP) =  -75.2881048281     A.U. after    7 cycles
            NFock=  7  Conv=0.18D-08     -V/T= 2.0108
 KE=          74.486615 PE=        -195.878612 EE=          37.429264
 Leave Link  502 at Wed Sep  3 18:23:30 2025, MaxMem= 12348030976 cpu:               5.8 elap:               0.2
 (Enter /home/hhratchian/gaussian/gdv-20250101-j30+/gdv/l508.exe)
 QCSCF skips out because SCF is already converged.
 Leave Link  508 at Wed Sep  3 18:23:30 2025, MaxMem= 12348030976 cpu:               0.1 elap:               0.0
 (Enter /home/hhratchian/gaussian/gdv-20250101-j30+/gdv/l701.exe)
 ... and contract with generalized density number  0.
 Compute integral first derivatives.
 Leave Link  701 at Wed Sep  3 18:23:31 2025, MaxMem= 12348030976 cpu:               1.9 elap:               0.1
 (Enter /home/hhratchian/gaussian/gdv-20250101-j30+/gdv/l702.exe)
 L702 exits ... SP integral derivatives will be done elsewhere.
 Leave Link  702 at Wed Sep  3 18:23:31 2025, MaxMem= 12348030976 cpu:               0.1 elap:               0.0
 (Enter /home/hhratchian/gaussian/gdv-20250101-j30+/gdv/l703.exe)
 Integral derivatives from FoFJK, PRISM(SPDF).
 Compute integral first derivatives, UseDBF=F ICtDFT=           0.
 Calling FoFJK, ICntrl=      2127 FMM=F ISym2X=1 I1Cent= 0 IOpClX= 0 NMat=1 NMatS=1 NMatT=0.
 FoFJK:  IHMeth= 1 ICntrl=    2127 DoSepK=T KAlg= 0 I1Cent=           0 FoldK=F
 IRaf=         1 NMat=       1 IRICut=       1 DoRegI=T DoRafI=F ISym2E= 1 IDoP0=0 IntGTp=1.
 FoFCou: FMM=F IPFlag=           0 FMFlag=      100000 FMFlg1=         800
         NFxFlg=           0 DoJE=F BraDBF=F KetDBF=F FulRan=T
         wScrn=  0.000000 ICntrl=      2527 IOpCl=  0 I1Cent=           0 NGrid=           0
         NMat0=    1 NMatS0=      1 NMatT0=    0 NMatD0=    1 NMtDS0=    0 NMtDT0=    0
 Petite list used in FoFCou.
 Leave Link  703 at Wed Sep  3 18:23:31 2025, MaxMem= 12348030976 cpu:               4.4 elap:               0.2
 (Enter /home/hhratchian/gaussian/gdv-20250101-j30+/gdv/l716.exe)
 Dipole        =-3.15251301D-17 0.00000000D+00-6.51058674D-01
 ***** Axes restored to original set *****
 -------------------------------------------------------------------
 Center     Atomic                   Forces (Hartrees/Bohr)
 Number     Number              X              Y              Z
 -------------------------------------------------------------------
      1        8           0.000000000   -0.000000000    0.004913152
      2        1           0.009918725    0.000000000   -0.002456576
      3        1          -0.009918725    0.000000000   -0.002456576
 -------------------------------------------------------------------
 Cartesian Forces:  Max     0.009918725 RMS     0.005087794
 Leave Link  716 at Wed Sep  3 18:23:31 2025, MaxMem= 12348030976 cpu:               0.1 elap:               0.0
 (Enter /home/hhratchian/gaussian/gdv-20250101-j30+/gdv/l103.exe)

 GradGradGradGradGradGradGradGradGradGradGradGradGradGradGradGradGradGrad
 Berny optimization.
 Using GEDIIS/GDIIS optimizer.
 FormGI is forming the generalized inverse of G from B-inverse, IUseBI=4.
 NTrRot=    -1 NTRed=     3 NAtoms=     3 NSkip=     0 NRank=     3 IsLin=F EigSml=6.8800D-01
 Internal  Forces:  Max     0.016423915 RMS     0.010530711
 Search for a local minimum.
 Step number   3 out of a maximum of   20
 All quantities printed in internal units (Hartrees-Bohrs-Radians)
 RMS Force = .10531D-01 SwitMx=.10000D-02 MixMth= 1
 Mixed Optimization -- RFO/linear search
 Update second derivatives using D2CorX and points    1    2    3
 DE= -1.12D-03 DEPred=-1.38D-03 R= 8.13D-01
 TightC=F SS=  1.41D+00  RLast= 1.37D-01 DXNew= 8.4853D-01 4.0972D-01
 Trust test= 8.13D-01 RLast= 1.37D-01 DXMaxT set to 5.05D-01
 The second derivative matrix:
                          R1        R2        A1
           R1           0.55540
           R2          -0.11985   0.55540
           A1           0.00284   0.00284   0.25508
 ITU=  1  1  0
 Use linear search instead of GDIIS.
     Eigenvalues ---    0.25499   0.43565   0.67525
 RFO step:  Lambda=-7.34857529D-04 EMin= 2.54990910D-01
 Quartic linear search produced a step of -0.28857.
 GrdOpt: GIC=T ITstSp=  0 NP=   3 DidLin=T DidDIS=F IDoGRo=0 IDoRot=0
         ISwap=1 XLin=-0.289 DXMaxT= 0.505
 Iteration  1 RMS(Cart)=  0.02587144 RMS(Int)=  0.00082650
 Iteration  2 RMS(Cart)=  0.00033543 RMS(Int)=  0.00000013
 Iteration  3 RMS(Cart)=  0.00000009 RMS(Int)=  0.00000000
 ClnCor:  largest displacement from symmetrization is 4.44D-16 for atom     3.
 Variable       Old X    -DE/DX   Delta X   Delta X   Delta X     New X
                                 (Linear)    (Quad)   (Total)
    R1        1.92300   0.00561  -0.01204   0.02455   0.01251   1.93552
    R2        1.92300   0.00561  -0.01204   0.02455   0.01251   1.93552
    A1        1.64791   0.01642   0.03554   0.02803   0.06358   1.71149
         Item               Value     Threshold  Converged?
 Maximum Force            0.016424     0.000450     NO 
 RMS     Force            0.010531     0.000300     NO 
 Maximum Displacement     0.050254     0.001800     NO 
 RMS     Displacement     0.044642     0.001200     NO 
 Predicted change in Energy=-5.963307D-04
 Lowest energy point so far.  Saving SCF results.
 GradGradGradGradGradGradGradGradGradGradGradGradGradGradGradGradGradGrad

 Leave Link  103 at Wed Sep  3 18:23:31 2025, MaxMem= 12348030976 cpu:               0.2 elap:               0.0
 (Enter /home/hhratchian/gaussian/gdv-20250101-j30+/gdv/l202.exe)
                          Input orientation:                          
 ---------------------------------------------------------------------
 Center     Atomic      Atomic             Coordinates (Angstroms)
 Number     Number       Type             X           Y           Z
 ---------------------------------------------------------------------
      1          8           0       -0.000000    0.000000   -0.111507
      2          1           0        0.773355    0.000000    0.560038
      3          1           0       -0.773355   -0.000000    0.560038
 ---------------------------------------------------------------------
                    Distance matrix (angstroms):
                    1          2          3
     1  O    0.000000
     2  H    1.024231   0.000000
     3  H    1.024231   1.546709   0.000000
 Stoichiometry    H2O
 Framework group  C2V[C2(O),SGV(H2)]
 Deg. of freedom     2
 Full point group                 C2V     NOp   4
 RotChk:  IX=0 Diff= 9.08D-16
 Largest Abelian subgroup         C2V     NOp   4
 Largest concise Abelian subgroup C2      NOp   2
                         Standard orientation:                         
 ---------------------------------------------------------------------
 Center     Atomic      Atomic             Coordinates (Angstroms)
 Number     Number       Type             X           Y           Z
 ---------------------------------------------------------------------
      1          8           0        0.000000   -0.000000    0.134309
      2          1           0       -0.000000    0.773355   -0.537236
      3          1           0       -0.000000   -0.773355   -0.537236
 ---------------------------------------------------------------------
 Rotational constants (GHZ):         626.0329956         419.2226016         251.0842150
 Leave Link  202 at Wed Sep  3 18:23:31 2025, MaxMem= 12348030976 cpu:               0.3 elap:               0.0
 (Enter /home/hhratchian/gaussian/gdv-20250101-j30+/gdv/local/l301.exe)
 Basis read from rwf:  (5D, 7F)
 No pseudopotential information found on rwf file.
 There are     4 symmetry adapted cartesian basis functions of A1  symmetry.
 There are     0 symmetry adapted cartesian basis functions of A2  symmetry.
 There are     1 symmetry adapted cartesian basis functions of B1  symmetry.
 There are     2 symmetry adapted cartesian basis functions of B2  symmetry.
 There are     4 symmetry adapted basis functions of A1  symmetry.
 There are     0 symmetry adapted basis functions of A2  symmetry.
 There are     1 symmetry adapted basis functions of B1  symmetry.
 There are     2 symmetry adapted basis functions of B2  symmetry.
     7 basis functions,    21 primitive gaussians,     7 cartesian basis functions
     5 alpha electrons        5 beta electrons
       nuclear repulsion energy         8.6086565048 Hartrees.
 IExCor=   2004019 DFT=T Ex+Corr=CAM-B3LYP ScaHFX=  1.000000
 ScaDFX=  1.000000  1.000000  1.000000  0.810000  1.000000  0.000000
 ScaDFX=  0.000000  0.000000  0.000000  0.000000  0.000000  0.000000
 Grid=SuperFine IRanWt=     -1 IRanGd=            0 ICorTp=0 IEDCtl=  2004
 HFx  wShort=  0.000000 wLong=  0.330000 cFull=  0.190000 cShort=  0.000000 cLong=  0.460000
 DFx  wShort=  0.330000 wLong=  0.000000 cFull=  0.350000 cShort=  0.460000 cLong=  0.000000
 NAtoms=    3 NActive=    3 NUniq=    2 SFac= 2.25D+00 NAtFMM=   60 NAOKFM=F Big=F
 Integral buffers will be    131072 words long.
 Raffenetti 2 integral format.
 Two-electron integral symmetry is turned on.
 No density basis found on file    724.
 Leave Link  301 at Wed Sep  3 18:23:31 2025, MaxMem= 12348030976 cpu:               0.2 elap:               0.1
 (Enter /home/hhratchian/gaussian/gdv-20250101-j30+/gdv/l302.exe)
 NPDir=0 NMtPBC=     1 NCelOv=     1 NCel=       1 NClECP=     1 NCelD=      1
         NCelK=      1 NCelE2=     1 NClLst=     1 CellRange=     0.0.
 One-electron integrals computed using PRISM.
 One-electron integral symmetry used in STVInt
 NBasis=     7 RedAO= T EigKep=  3.86D-01  NBF=     4     0     1     2
 NBsUse=     7 1.00D-06 EigRej= -1.00D+00 NBFU=     4     0     1     2
 Precomputing XC quadrature grid using
 IXCGrd=   9 Grid=SuperFine IRanWt=          -1 IRanGd=           0 AccXCQ= 0.00D+00.
 Generated NRdTot=       0 NPtTot=      186287 NUsed=           0 NTot=          64
 NSgBfM=     7     7     7     7     7 MxSgAt=     3 MxSgA2=     3 SizInc=   0.000
 NMBTot=     1253 MaxBatPerAtom=      123 MaxMicBPerAtom=      420 NBfPt=             1126899.
 Leave Link  302 at Wed Sep  3 18:23:31 2025, MaxMem= 12348030976 cpu:               2.1 elap:               0.1
 (Enter /home/hhratchian/gaussian/gdv-20250101-j30+/gdv/l303.exe)
 DipDrv:  MaxL=1.
 Leave Link  303 at Wed Sep  3 18:23:31 2025, MaxMem= 12348030976 cpu:               0.2 elap:               0.0
 (Enter /home/hhratchian/gaussian/gdv-20250101-j30+/gdv/l401.exe)
 Initial guess from the checkpoint file:  "H2O_CAM-B3LYP_STO-3G_q0_m1.chk"
 B after Tr=    -0.000000   -0.000000    0.000000
         Rot=    1.000000    0.000000   -0.000000    0.000000 Ang=   0.00 deg.
 AO Guess basis will be translated and rotated to current coordinates.
 JPrj=2 DoOrth=T DoCkMO=T.
 Initial guess orbital symmetries:
       Occupied  (A1) (A1) (B2) (A1) (B1)
       Virtual   (A1) (B2)
 The electronic state of the initial guess is 1-A1.
 Generating alternative initial guess.
 ExpMin= 1.69D-01 ExpMax= 1.31D+02 ExpMxC= 1.31D+02 IAcc=3 Grid=SuperFine AccDes= 0.00D+00
 Harris functional with IExCor=10009 and Grid=SuperFine diagonalized for initial guess.
 HarFok:  IExCor=   10009 AccDes= 0.00D+00 Grid=SuperFine IDoV= 1 UseB2=F ITyADJ=14 ICtDFT=  3500011
 FoFCou: FMM=F IPFlag=           0 FMFlag=      100000 FMFlg1=           0
         NFxFlg=           0 DoJE=T BraDBF=F KetDBF=T FulRan=T
         wScrn=  0.000000 ICntrl=       500 IOpCl=  0 I1Cent=   200000004 NGrid=           0
         NMat0=    1 NMatS0=      1 NMatT0=    0 NMatD0=    1 NMtDS0=    0 NMtDT0=    0
 Petite list used in FoFCou.
 Harris En= -75.3102926351284    
 Leave Link  401 at Wed Sep  3 18:23:31 2025, MaxMem= 12348030976 cpu:               3.8 elap:               0.1
 (Enter /home/hhratchian/gaussian/gdv-20250101-j30+/gdv/local/l502.exe)
 Keep R1 ints in memory in symmetry-blocked form, NReq=47924202.
 FoFCou: FMM=F IPFlag=           0 FMFlag=           0 FMFlg1=           0
         NFxFlg=           0 DoJE=F BraDBF=F KetDBF=F FulRan=T
         wScrn=  0.000000 ICntrl=       600 IOpCl=  0 I1Cent=           0 NGrid=           0
         NMat0=    1 NMatS0=     28 NMatT0=    0 NMatD0=    1 NMtDS0=    0 NMtDT0=    0
 Petite list used in FoFCou.
 Closed shell SCF:
 Using DIIS extrapolation, IDIIS=  1040.
 NGot= 12348030976 LenX= 12348027978 LenY= 12348027096
 Requested convergence on RMS density matrix=1.00D-08 within  32 cycles.
 Requested convergence on MAX density matrix=1.00D-06.
 Requested convergence on             energy=1.00D-06.
 No special actions if energy rises.
 Integral accuracy reduced to 1.0D-05 until final iterations.
 
  Hrant - CycOpn.
 

 Cycle   1  Pass 0  IDiag  1:
 E= -75.2885249013110    
 DIIS: error= 1.62D-03 at cycle   1 NSaved=   1.
 NSaved= 1 IEnMin= 1 EnMin= -75.2885249013110     IErMin= 1 ErrMin= 1.62D-03
 ErrMax= 1.62D-03  0.00D+00 EMaxC= 1.00D-01 BMatC= 8.62D-06 BMatP= 8.62D-06
 Rises=F IDIUse=3 WtCom= 9.93D-01 WtEn= 6.54D-03
 Coeff-Com:  0.100D+01
 Coeff-En:   0.100D+01
 Coeff:      0.100D+01
 Gap=     0.591 Goal=   None    Shift=    0.000
 GapD=    0.591 DampG=2.000 DampE=1.000 DampFc=2.0000 IDamp=-1.
 RMSDP=1.67D-03 MaxDP=5.43D-03              OVMax= 0.00D+00

 Cycle   2  Pass 0  IDiag  1:
 E= -75.2885692835642     Delta-E=       -0.000044382253 Rises=F Damp=F AM=F Ri=F Fa=F
 DIIS: error= 3.79D-04 at cycle   2 NSaved=   2.
 NSaved= 2 IEnMin= 2 EnMin= -75.2885692835642     IErMin= 2 ErrMin= 3.79D-04
 ErrMax= 3.79D-04  0.00D+00 EMaxC= 1.00D-01 BMatC= 5.28D-07 BMatP= 8.62D-06
 Rises=F IDIUse=3 WtCom= 9.99D-01 WtEn= 7.39D-04
 Coeff-Com: -0.191D+00 0.119D+01
 Coeff-En:   0.000D+00 0.100D+01
 Coeff:     -0.191D+00 0.119D+01
 Gap=     0.590 Goal=   None    Shift=    0.000
 RMSDP=4.58D-04 MaxDP=1.29D-03 DE=-4.44D-05 OVMax= 0.00D+00

 Cycle   3  Pass 0  IDiag  1:
 E= -75.2885723718817     Delta-E=       -0.000003088317 Rises=F Damp=F AM=F Ri=F Fa=F
 DIIS: error= 7.66D-05 at cycle   3 NSaved=   3.
 NSaved= 3 IEnMin= 3 EnMin= -75.2885723718817     IErMin= 3 ErrMin= 7.66D-05
 ErrMax= 7.66D-05  0.00D+00 EMaxC= 1.00D-01 BMatC= 3.77D-08 BMatP= 5.28D-07
 Rises=F IDIUse=1 WtCom= 1.00D+00 WtEn= 0.00D+00
 Coeff-Com: -0.552D-01 0.213D+00 0.842D+00
 Coeff:     -0.552D-01 0.213D+00 0.842D+00
 Gap=     0.590 Goal=   None    Shift=    0.000
 RMSDP=8.85D-05 MaxDP=3.36D-04 DE=-3.09D-06 OVMax= 0.00D+00

 Cycle   4  Pass 0  IDiag  1:
 E= -75.2885725039653     Delta-E=       -0.000000132084 Rises=F Damp=F AM=F Ri=F Fa=F
 DIIS: error= 3.82D-05 at cycle   4 NSaved=   4.
 NSaved= 4 IEnMin= 4 EnMin= -75.2885725039653     IErMin= 4 ErrMin= 3.82D-05
 ErrMax= 3.82D-05  0.00D+00 EMaxC= 1.00D-01 BMatC= 3.70D-09 BMatP= 3.77D-08
 Rises=F IDIUse=1 WtCom= 1.00D+00 WtEn= 0.00D+00
 Coeff-Com:  0.144D-02-0.557D-01 0.184D+00 0.870D+00
 Coeff:      0.144D-02-0.557D-01 0.184D+00 0.870D+00
 Gap=     0.590 Goal=   None    Shift=    0.000
 RMSDP=1.91D-05 MaxDP=7.74D-05 DE=-1.32D-07 OVMax= 0.00D+00

 Cycle   5  Pass 0  IDiag  1:
 E= -75.2885725150678     Delta-E=       -0.000000011103 Rises=F Damp=F AM=F Ri=F Fa=F
 DIIS: error= 6.08D-07 at cycle   5 NSaved=   5.
 NSaved= 5 IEnMin= 5 EnMin= -75.2885725150678     IErMin= 5 ErrMin= 6.08D-07
 ErrMax= 6.08D-07  0.00D+00 EMaxC= 1.00D-01 BMatC= 1.55D-12 BMatP= 3.70D-09
 Rises=F IDIUse=1 WtCom= 1.00D+00 WtEn= 0.00D+00
 Coeff-Com: -0.101D-03 0.437D-02-0.184D-01-0.595D-01 0.107D+01
 Coeff:     -0.101D-03 0.437D-02-0.184D-01-0.595D-01 0.107D+01
 Gap=     0.590 Goal=   None    Shift=    0.000
 RMSDP=2.92D-07 MaxDP=1.11D-06 DE=-1.11D-08 OVMax= 0.00D+00

 Initial convergence to 1.0D-05 achieved.  Increase integral accuracy.
 Cycle   6  Pass 1  IDiag  1:
 E= -75.2885724132623     Delta-E=        0.000000101805 Rises=F Damp=F AM=F Ri=F Fa=F
 DIIS: error= 8.14D-09 at cycle   1 NSaved=   1.
 NSaved= 1 IEnMin= 1 EnMin= -75.2885724132623     IErMin= 1 ErrMin= 8.14D-09
 ErrMax= 8.14D-09  0.00D+00 EMaxC= 1.00D-01 BMatC= 3.19D-16 BMatP= 3.19D-16
 Rises=F IDIUse=1 WtCom= 1.00D+00 WtEn= 0.00D+00
 Coeff-Com:  0.100D+01
 Coeff:      0.100D+01
 Gap=     0.590 Goal=   None    Shift=    0.000
 RMSDP=2.92D-07 MaxDP=1.11D-06 DE= 1.02D-07 OVMax= 0.00D+00

 Cycle   7  Pass 1  IDiag  1:
 E= -75.2885724132623     Delta-E=        0.000000000000 Rises=F Damp=F AM=F Ri=F Fa=F
 DIIS: error= 2.57D-09 at cycle   2 NSaved=   2.
 NSaved= 2 IEnMin= 1 EnMin= -75.2885724132623     IErMin= 2 ErrMin= 2.57D-09
 ErrMax= 2.57D-09  0.00D+00 EMaxC= 1.00D-01 BMatC= 2.41D-17 BMatP= 3.19D-16
 Rises=F IDIUse=1 WtCom= 1.00D+00 WtEn= 0.00D+00
 Coeff-Com:  0.155D+00 0.845D+00
 Coeff:      0.155D+00 0.845D+00
 Gap=     0.590 Goal=   None    Shift=    0.000
 RMSDP=1.84D-09 MaxDP=5.80D-09 DE= 4.26D-14 OVMax= 0.00D+00

 SCF Done:  E(RCAM-B3LYP) =  -75.2885724133     A.U. after    7 cycles
            NFock=  7  Conv=0.18D-08     -V/T= 2.0110
 KE=          74.469110 PE=        -195.761890 EE=          37.395552
 Leave Link  502 at Wed Sep  3 18:23:31 2025, MaxMem= 12348030976 cpu:               5.6 elap:               0.2
 (Enter /home/hhratchian/gaussian/gdv-20250101-j30+/gdv/l508.exe)
 QCSCF skips out because SCF is already converged.
 Leave Link  508 at Wed Sep  3 18:23:31 2025, MaxMem= 12348030976 cpu:               0.1 elap:               0.0
 (Enter /home/hhratchian/gaussian/gdv-20250101-j30+/gdv/l701.exe)
 ... and contract with generalized density number  0.
 Compute integral first derivatives.
 Leave Link  701 at Wed Sep  3 18:23:32 2025, MaxMem= 12348030976 cpu:               2.1 elap:               0.1
 (Enter /home/hhratchian/gaussian/gdv-20250101-j30+/gdv/l702.exe)
 L702 exits ... SP integral derivatives will be done elsewhere.
 Leave Link  702 at Wed Sep  3 18:23:32 2025, MaxMem= 12348030976 cpu:               0.2 elap:               0.0
 (Enter /home/hhratchian/gaussian/gdv-20250101-j30+/gdv/l703.exe)
 Integral derivatives from FoFJK, PRISM(SPDF).
 Compute integral first derivatives, UseDBF=F ICtDFT=           0.
 Calling FoFJK, ICntrl=      2127 FMM=F ISym2X=1 I1Cent= 0 IOpClX= 0 NMat=1 NMatS=1 NMatT=0.
 FoFJK:  IHMeth= 1 ICntrl=    2127 DoSepK=T KAlg= 0 I1Cent=           0 FoldK=F
 IRaf=         1 NMat=       1 IRICut=       1 DoRegI=T DoRafI=F ISym2E= 1 IDoP0=0 IntGTp=1.
 FoFCou: FMM=F IPFlag=           0 FMFlag=      100000 FMFlg1=         800
         NFxFlg=           0 DoJE=F BraDBF=F KetDBF=F FulRan=T
         wScrn=  0.000000 ICntrl=      2527 IOpCl=  0 I1Cent=           0 NGrid=           0
         NMat0=    1 NMatS0=      1 NMatT0=    0 NMatD0=    1 NMtDS0=    0 NMtDT0=    0
 Petite list used in FoFCou.
 Leave Link  703 at Wed Sep  3 18:23:32 2025, MaxMem= 12348030976 cpu:               4.3 elap:               0.1
 (Enter /home/hhratchian/gaussian/gdv-20250101-j30+/gdv/l716.exe)
 Dipole        =-3.25760264D-17 0.00000000D+00-6.40152571D-01
 ***** Axes restored to original set *****
 -------------------------------------------------------------------
 Center     Atomic                   Forces (Hartrees/Bohr)
 Number     Number              X              Y              Z
 -------------------------------------------------------------------
      1        8           0.000000000   -0.000000000    0.001940787
      2        1          -0.003092257    0.000000000   -0.000970394
      3        1           0.003092257    0.000000000   -0.000970394
 -------------------------------------------------------------------
 Cartesian Forces:  Max     0.003092257 RMS     0.001659119
 Leave Link  716 at Wed Sep  3 18:23:32 2025, MaxMem= 12348030976 cpu:               0.1 elap:               0.0
 (Enter /home/hhratchian/gaussian/gdv-20250101-j30+/gdv/l103.exe)

 GradGradGradGradGradGradGradGradGradGradGradGradGradGradGradGradGradGrad
 Berny optimization.
 Using GEDIIS/GDIIS optimizer.
 FormGI is forming the generalized inverse of G from B-inverse, IUseBI=4.
 NTrRot=    -1 NTRed=     3 NAtoms=     3 NSkip=     0 NRank=     3 IsLin=F EigSml=6.9375D-01
 Internal  Forces:  Max     0.002971080 RMS     0.002824582
 Search for a local minimum.
 Step number   4 out of a maximum of   20
 All quantities printed in internal units (Hartrees-Bohrs-Radians)
 RMS Force = .28246D-02 SwitMx=.10000D-02 MixMth= 1
 Mixed Optimization -- RFO/linear search
 Update second derivatives using D2CorX and points    1    2    3    4
 DE= -4.68D-04 DEPred=-5.96D-04 R= 7.84D-01
 TightC=F SS=  1.41D+00  RLast= 6.60D-02 DXNew= 8.4853D-01 1.9798D-01
 Trust test= 7.84D-01 RLast= 6.60D-02 DXMaxT set to 5.05D-01
 The second derivative matrix:
                          R1        R2        A1
           R1           0.59532
           R2          -0.07993   0.59532
           A1           0.03354   0.03354   0.28455
 ITU=  1  1  1  0
 Use linear search instead of GDIIS.
     Eigenvalues ---    0.27519   0.52476   0.67525
 RFO step:  Lambda=-1.14685858D-05 EMin= 2.75187972D-01
 Quartic linear search produced a step of -0.16943.
 GrdOpt: GIC=T ITstSp=  0 NP=   4 DidLin=T DidDIS=F IDoGRo=0 IDoRot=0
         ISwap=1 XLin=-0.169 DXMaxT= 0.505
 Iteration  1 RMS(Cart)=  0.00429068 RMS(Int)=  0.00001755
 Iteration  2 RMS(Cart)=  0.00000696 RMS(Int)=  0.00000000
 Iteration  3 RMS(Cart)=  0.00000000 RMS(Int)=  0.00000000
 ClnCor:  largest displacement from symmetrization is 3.39D-17 for atom     1.
 Variable       Old X    -DE/DX   Delta X   Delta X   Delta X     New X
                                 (Linear)    (Quad)   (Total)
    R1        1.93552  -0.00297  -0.00212  -0.00317  -0.00529   1.93023
    R2        1.93552  -0.00297  -0.00212  -0.00317  -0.00529   1.93023
    A1        1.71149  -0.00251  -0.01077   0.00287  -0.00790   1.70359
         Item               Value     Threshold  Converged?
 Maximum Force            0.002971     0.000450     NO 
 RMS     Force            0.002825     0.000300     NO 
 Maximum Displacement     0.009003     0.001800     NO 
 RMS     Displacement     0.007429     0.001200     NO 
 Predicted change in Energy=-2.512644D-05
 Lowest energy point so far.  Saving SCF results.
 GradGradGradGradGradGradGradGradGradGradGradGradGradGradGradGradGradGrad

 Leave Link  103 at Wed Sep  3 18:23:32 2025, MaxMem= 12348030976 cpu:               0.2 elap:               0.0
 (Enter /home/hhratchian/gaussian/gdv-20250101-j30+/gdv/l202.exe)
                          Input orientation:                          
 ---------------------------------------------------------------------
 Center     Atomic      Atomic             Coordinates (Angstroms)
 Number     Number       Type             X           Y           Z
 ---------------------------------------------------------------------
      1          8           0       -0.000000    0.000000   -0.112312
      2          1           0        0.768591    0.000000    0.560440
      3          1           0       -0.768591   -0.000000    0.560440
 ---------------------------------------------------------------------
                    Distance matrix (angstroms):
                    1          2          3
     1  O    0.000000
     2  H    1.021433   0.000000
     3  H    1.021433   1.537181   0.000000
 Stoichiometry    H2O
 Framework group  C2V[C2(O),SGV(H2)]
 Deg. of freedom     2
 Full point group                 C2V     NOp   4
 RotChk:  IX=0 Diff= 1.66D-15
 Largest Abelian subgroup         C2V     NOp   4
 Largest concise Abelian subgroup C2      NOp   2
                         Standard orientation:                         
 ---------------------------------------------------------------------
 Center     Atomic      Atomic             Coordinates (Angstroms)
 Number     Number       Type             X           Y           Z
 ---------------------------------------------------------------------
      1          8           0        0.000000    0.000000    0.134550
      2          1           0        0.000000    0.768591   -0.538201
      3          1           0       -0.000000   -0.768591   -0.538201
 ---------------------------------------------------------------------
 Rotational constants (GHZ):         623.7893652         424.4356424         252.5778703
 Leave Link  202 at Wed Sep  3 18:23:32 2025, MaxMem= 12348030976 cpu:               0.3 elap:               0.0
 (Enter /home/hhratchian/gaussian/gdv-20250101-j30+/gdv/local/l301.exe)
 Basis read from rwf:  (5D, 7F)
 No pseudopotential information found on rwf file.
 There are     4 symmetry adapted cartesian basis functions of A1  symmetry.
 There are     0 symmetry adapted cartesian basis functions of A2  symmetry.
 There are     1 symmetry adapted cartesian basis functions of B1  symmetry.
 There are     2 symmetry adapted cartesian basis functions of B2  symmetry.
 There are     4 symmetry adapted basis functions of A1  symmetry.
 There are     0 symmetry adapted basis functions of A2  symmetry.
 There are     1 symmetry adapted basis functions of B1  symmetry.
 There are     2 symmetry adapted basis functions of B2  symmetry.
     7 basis functions,    21 primitive gaussians,     7 cartesian basis functions
     5 alpha electrons        5 beta electrons
       nuclear repulsion energy         8.6334212907 Hartrees.
 IExCor=   2004019 DFT=T Ex+Corr=CAM-B3LYP ScaHFX=  1.000000
 ScaDFX=  1.000000  1.000000  1.000000  0.810000  1.000000  0.000000
 ScaDFX=  0.000000  0.000000  0.000000  0.000000  0.000000  0.000000
 Grid=SuperFine IRanWt=     -1 IRanGd=            0 ICorTp=0 IEDCtl=  2004
 HFx  wShort=  0.000000 wLong=  0.330000 cFull=  0.190000 cShort=  0.000000 cLong=  0.460000
 DFx  wShort=  0.330000 wLong=  0.000000 cFull=  0.350000 cShort=  0.460000 cLong=  0.000000
 NAtoms=    3 NActive=    3 NUniq=    2 SFac= 2.25D+00 NAtFMM=   60 NAOKFM=F Big=F
 Integral buffers will be    131072 words long.
 Raffenetti 2 integral format.
 Two-electron integral symmetry is turned on.
 No density basis found on file    724.
 Leave Link  301 at Wed Sep  3 18:23:32 2025, MaxMem= 12348030976 cpu:               0.2 elap:               0.1
 (Enter /home/hhratchian/gaussian/gdv-20250101-j30+/gdv/l302.exe)
 NPDir=0 NMtPBC=     1 NCelOv=     1 NCel=       1 NClECP=     1 NCelD=      1
         NCelK=      1 NCelE2=     1 NClLst=     1 CellRange=     0.0.
 One-electron integrals computed using PRISM.
 One-electron integral symmetry used in STVInt
 NBasis=     7 RedAO= T EigKep=  3.84D-01  NBF=     4     0     1     2
 NBsUse=     7 1.00D-06 EigRej= -1.00D+00 NBFU=     4     0     1     2
 Precomputing XC quadrature grid using
 IXCGrd=   9 Grid=SuperFine IRanWt=          -1 IRanGd=           0 AccXCQ= 0.00D+00.
 Generated NRdTot=       0 NPtTot=      186326 NUsed=           0 NTot=          64
 NSgBfM=     7     7     7     7     7 MxSgAt=     3 MxSgA2=     3 SizInc=   0.000
 NMBTot=     1267 MaxBatPerAtom=      123 MaxMicBPerAtom=      423 NBfPt=             1126762.
 Leave Link  302 at Wed Sep  3 18:23:32 2025, MaxMem= 12348030976 cpu:               2.1 elap:               0.1
 (Enter /home/hhratchian/gaussian/gdv-20250101-j30+/gdv/l303.exe)
 DipDrv:  MaxL=1.
 Leave Link  303 at Wed Sep  3 18:23:32 2025, MaxMem= 12348030976 cpu:               0.2 elap:               0.0
 (Enter /home/hhratchian/gaussian/gdv-20250101-j30+/gdv/l401.exe)
 Initial guess from the checkpoint file:  "H2O_CAM-B3LYP_STO-3G_q0_m1.chk"
 B after Tr=     0.000000   -0.000000   -0.000000
         Rot=    1.000000    0.000000    0.000000    0.000000 Ang=   0.00 deg.
 AO Guess basis will be translated and rotated to current coordinates.
 JPrj=2 DoOrth=T DoCkMO=T.
 Initial guess orbital symmetries:
       Occupied  (A1) (A1) (B2) (A1) (B1)
       Virtual   (A1) (B2)
 The electronic state of the initial guess is 1-A1.
 Leave Link  401 at Wed Sep  3 18:23:32 2025, MaxMem= 12348030976 cpu:               0.3 elap:               0.1
 (Enter /home/hhratchian/gaussian/gdv-20250101-j30+/gdv/local/l502.exe)
 Keep R1 ints in memory in symmetry-blocked form, NReq=47924202.
 FoFCou: FMM=F IPFlag=           0 FMFlag=           0 FMFlg1=           0
         NFxFlg=           0 DoJE=F BraDBF=F KetDBF=F FulRan=T
         wScrn=  0.000000 ICntrl=       600 IOpCl=  0 I1Cent=           0 NGrid=           0
         NMat0=    1 NMatS0=     28 NMatT0=    0 NMatD0=    1 NMtDS0=    0 NMtDT0=    0
 Petite list used in FoFCou.
 Closed shell SCF:
 Using DIIS extrapolation, IDIIS=  1040.
 NGot= 12348030976 LenX= 12348027978 LenY= 12348027096
 Requested convergence on RMS density matrix=1.00D-08 within  32 cycles.
 Requested convergence on MAX density matrix=1.00D-06.
 Requested convergence on             energy=1.00D-06.
 No special actions if energy rises.
 
  Hrant - CycOpn.
 

 Cycle   1  Pass 1  IDiag  1:
 E= -75.2885980294379    
 DIIS: error= 2.63D-04 at cycle   1 NSaved=   1.
 NSaved= 1 IEnMin= 1 EnMin= -75.2885980294379     IErMin= 1 ErrMin= 2.63D-04
 ErrMax= 2.63D-04  0.00D+00 EMaxC= 1.00D-01 BMatC= 4.60D-07 BMatP= 4.60D-07
 Rises=F IDIUse=3 WtCom= 1.00D+00 WtEn= 4.27D-04
 Coeff-Com:  0.100D+01
 Coeff-En:   0.100D+01
 Coeff:      0.100D+01
 Gap=     0.593 Goal=   None    Shift=    0.000
 RMSDP=1.31D-04 MaxDP=4.75D-04              OVMax= 0.00D+00

 Cycle   2  Pass 1  IDiag  1:
 E= -75.2885983603605     Delta-E=       -0.000000330923 Rises=F Damp=F AM=F Ri=F Fa=F
 DIIS: error= 9.33D-05 at cycle   2 NSaved=   2.
 NSaved= 2 IEnMin= 2 EnMin= -75.2885983603605     IErMin= 2 ErrMin= 9.33D-05
 ErrMax= 9.33D-05  0.00D+00 EMaxC= 1.00D-01 BMatC= 3.80D-08 BMatP= 4.60D-07
 Rises=F IDIUse=1 WtCom= 1.00D+00 WtEn= 0.00D+00
 Coeff-Com:  0.158D+00 0.842D+00
 Coeff:      0.158D+00 0.842D+00
 Gap=     0.593 Goal=   None    Shift=    0.000
 RMSDP=7.15D-05 MaxDP=2.30D-04 DE=-3.31D-07 OVMax= 0.00D+00

 Cycle   3  Pass 1  IDiag  1:
 E= -75.2885984548736     Delta-E=       -0.000000094513 Rises=F Damp=F AM=F Ri=F Fa=F
 DIIS: error= 3.80D-05 at cycle   3 NSaved=   3.
 NSaved= 3 IEnMin= 3 EnMin= -75.2885984548736     IErMin= 3 ErrMin= 3.80D-05
 ErrMax= 3.80D-05  0.00D+00 EMaxC= 1.00D-01 BMatC= 4.70D-09 BMatP= 3.80D-08
 Rises=F IDIUse=1 WtCom= 1.00D+00 WtEn= 0.00D+00
 Coeff-Com: -0.550D-02 0.252D+00 0.753D+00
 Coeff:     -0.550D-02 0.252D+00 0.753D+00
 Gap=     0.593 Goal=   None    Shift=    0.000
 RMSDP=1.64D-05 MaxDP=6.06D-05 DE=-9.45D-08 OVMax= 0.00D+00

 Cycle   4  Pass 1  IDiag  1:
 E= -75.2885984671512     Delta-E=       -0.000000012278 Rises=F Damp=F AM=F Ri=F Fa=F
 DIIS: error= 1.74D-06 at cycle   4 NSaved=   4.
 NSaved= 4 IEnMin= 4 EnMin= -75.2885984671512     IErMin= 4 ErrMin= 1.74D-06
 ErrMax= 1.74D-06  0.00D+00 EMaxC= 1.00D-01 BMatC= 1.10D-11 BMatP= 4.70D-09
 Rises=F IDIUse=1 WtCom= 1.00D+00 WtEn= 0.00D+00
 Coeff-Com:  0.110D-02-0.860D-01-0.275D+00 0.136D+01
 Coeff:      0.110D-02-0.860D-01-0.275D+00 0.136D+01
 Gap=     0.593 Goal=   None    Shift=    0.000
 RMSDP=2.44D-06 MaxDP=6.86D-06 DE=-1.23D-08 OVMax= 0.00D+00

 Cycle   5  Pass 1  IDiag  1:
 E= -75.2885984672210     Delta-E=       -0.000000000070 Rises=F Damp=F AM=F Ri=F Fa=F
 DIIS: error= 2.98D-08 at cycle   5 NSaved=   5.
 NSaved= 5 IEnMin= 5 EnMin= -75.2885984672210     IErMin= 5 ErrMin= 2.98D-08
 ErrMax= 2.98D-08  0.00D+00 EMaxC= 1.00D-01 BMatC= 3.31D-15 BMatP= 1.10D-11
 Rises=F IDIUse=1 WtCom= 1.00D+00 WtEn= 0.00D+00
 Coeff-Com: -0.115D-03 0.727D-02 0.241D-01-0.121D+00 0.109D+01
 Coeff:     -0.115D-03 0.727D-02 0.241D-01-0.121D+00 0.109D+01
 Gap=     0.593 Goal=   None    Shift=    0.000
 RMSDP=1.66D-08 MaxDP=6.59D-08 DE=-6.98D-11 OVMax= 0.00D+00

 Cycle   6  Pass 1  IDiag  1:
 E= -75.2885984672211     Delta-E=       -0.000000000000 Rises=F Damp=F AM=F Ri=F Fa=F
 DIIS: error= 9.17D-12 at cycle   6 NSaved=   6.
 NSaved= 6 IEnMin= 6 EnMin= -75.2885984672211     IErMin= 6 ErrMin= 9.17D-12
 ErrMax= 9.17D-12  0.00D+00 EMaxC= 1.00D-01 BMatC= 3.79D-22 BMatP= 3.31D-15
 Rises=F IDIUse=1 WtCom= 1.00D+00 WtEn= 0.00D+00
 Coeff-Com: -0.858D-08-0.243D-07 0.422D-06-0.659D-05 0.278D-03 0.100D+01
 Coeff:     -0.858D-08-0.243D-07 0.422D-06-0.659D-05 0.278D-03 0.100D+01
 Gap=     0.593 Goal=   None    Shift=    0.000
 Skip diagonalization as Alpha Fock matrix is already diagonal.
 RMSDP=1.58D-31 MaxDP=7.30D-31 DE=-8.53D-14 OVMax= 0.00D+00

 SCF Done:  E(RCAM-B3LYP) =  -75.2885984672     A.U. after    6 cycles
            NFock=  6  Conv=0.16D-30     -V/T= 2.0109
 KE=          74.474487 PE=        -195.809558 EE=          37.413051
 Leave Link  502 at Wed Sep  3 18:23:32 2025, MaxMem= 12348030976 cpu:               5.4 elap:               0.2
 (Enter /home/hhratchian/gaussian/gdv-20250101-j30+/gdv/l508.exe)
 QCSCF skips out because SCF is already converged.
 Leave Link  508 at Wed Sep  3 18:23:32 2025, MaxMem= 12348030976 cpu:               0.1 elap:               0.0
 (Enter /home/hhratchian/gaussian/gdv-20250101-j30+/gdv/l701.exe)
 ... and contract with generalized density number  0.
 Compute integral first derivatives.
 Leave Link  701 at Wed Sep  3 18:23:32 2025, MaxMem= 12348030976 cpu:               2.0 elap:               0.1
 (Enter /home/hhratchian/gaussian/gdv-20250101-j30+/gdv/l702.exe)
 L702 exits ... SP integral derivatives will be done elsewhere.
 Leave Link  702 at Wed Sep  3 18:23:33 2025, MaxMem= 12348030976 cpu:               0.1 elap:               0.0
 (Enter /home/hhratchian/gaussian/gdv-20250101-j30+/gdv/l703.exe)
 Integral derivatives from FoFJK, PRISM(SPDF).
 Compute integral first derivatives, UseDBF=F ICtDFT=           0.
 Calling FoFJK, ICntrl=      2127 FMM=F ISym2X=1 I1Cent= 0 IOpClX= 0 NMat=1 NMatS=1 NMatT=0.
 FoFJK:  IHMeth= 1 ICntrl=    2127 DoSepK=T KAlg= 0 I1Cent=           0 FoldK=F
 IRaf=         1 NMat=       1 IRICut=       1 DoRegI=T DoRafI=F ISym2E= 1 IDoP0=0 IntGTp=1.
 FoFCou: FMM=F IPFlag=           0 FMFlag=      100000 FMFlg1=         800
         NFxFlg=           0 DoJE=F BraDBF=F KetDBF=F FulRan=T
         wScrn=  0.000000 ICntrl=      2527 IOpCl=  0 I1Cent=           0 NGrid=           0
         NMat0=    1 NMatS0=      1 NMatT0=    0 NMatD0=    1 NMtDS0=    0 NMtDT0=    0
 Petite list used in FoFCou.
 Leave Link  703 at Wed Sep  3 18:23:33 2025, MaxMem= 12348030976 cpu:               4.3 elap:               0.2
 (Enter /home/hhratchian/gaussian/gdv-20250101-j30+/gdv/l716.exe)
 Dipole        =-3.25200461D-17 0.00000000D+00-6.42811541D-01
 ***** Axes restored to original set *****
 -------------------------------------------------------------------
 Center     Atomic                   Forces (Hartrees/Bohr)
 Number     Number              X              Y              Z
 -------------------------------------------------------------------
      1        8           0.000000000   -0.000000000    0.000166582
      2        1          -0.000062885    0.000000000   -0.000083291
      3        1           0.000062885    0.000000000   -0.000083291
 -------------------------------------------------------------------
 Cartesian Forces:  Max     0.000166582 RMS     0.000074187
 Leave Link  716 at Wed Sep  3 18:23:33 2025, MaxMem= 12348030976 cpu:               0.1 elap:               0.0
 (Enter /home/hhratchian/gaussian/gdv-20250101-j30+/gdv/l103.exe)

 GradGradGradGradGradGradGradGradGradGradGradGradGradGradGradGradGradGrad
 Berny optimization.
 Using GEDIIS/GDIIS optimizer.
 FormGI is forming the generalized inverse of G from B-inverse, IUseBI=4.
 NTrRot=    -1 NTRed=     3 NAtoms=     3 NSkip=     0 NRank=     3 IsLin=F EigSml=6.9494D-01
 Internal  Forces:  Max     0.000102177 RMS     0.000086724
 Search for a local minimum.
 Step number   5 out of a maximum of   20
 All quantities printed in internal units (Hartrees-Bohrs-Radians)
 RMS Force = .86724D-04 SwitMx=.10000D-02 MixMth= 2
 Mixed Optimization -- En-DIIS/RFO-DIIS
 Update second derivatives using D2CorX and points    2    3    4    5
 DE= -2.61D-05 DEPred=-2.51D-05 R= 1.04D+00
 TightC=F SS=  1.41D+00  RLast= 1.09D-02 DXNew= 8.4853D-01 3.2633D-02
 Trust test= 1.04D+00 RLast= 1.09D-02 DXMaxT set to 5.05D-01
 The second derivative matrix:
                          R1        R2        A1
           R1           0.58769
           R2          -0.08756   0.58769
           A1           0.02843   0.02843   0.28437
 ITU=  1  1  1  1
 Use linear search instead of GDIIS.
     Eigenvalues ---    0.27712   0.50737   0.67525
 RFO step:  Lambda=-4.03707974D-08 EMin= 2.77120410D-01
 Quartic linear search produced a step of  0.01487.
 GrdOpt: GIC=T ITstSp=  0 NP=   4 DidLin=T DidDIS=F IDoGRo=0 IDoRot=0
         ISwap=1 XLin= 0.015 DXMaxT= 0.505
 Iteration  1 RMS(Cart)=  0.00007821 RMS(Int)=  0.00000001
 Iteration  2 RMS(Cart)=  0.00000001 RMS(Int)=  0.00000000
 ClnCor:  largest displacement from symmetrization is 3.14D-16 for atom     3.
 Variable       Old X    -DE/DX   Delta X   Delta X   Delta X     New X
                                 (Linear)    (Quad)   (Total)
    R1        1.93023  -0.00010  -0.00008  -0.00014  -0.00021   1.93002
    R2        1.93023  -0.00010  -0.00008  -0.00014  -0.00021   1.93002
    A1        1.70359   0.00004  -0.00012   0.00031   0.00019   1.70378
         Item               Value     Threshold  Converged?
 Maximum Force            0.000102     0.000450     YES
 RMS     Force            0.000087     0.000300     YES
 Maximum Displacement     0.000185     0.001800     YES
 RMS     Displacement     0.000135     0.001200     YES
 Predicted change in Energy=-2.580311D-08
 Optimization completed.
    -- Stationary point found.
                           ----------------------------
                           !   Optimized Parameters   !
                           ! (Angstroms and Degrees)  !
 --------------------------                            --------------------------
 ! Name  Definition              Value          Derivative Info.                !
 --------------------------------------------------------------------------------
 ! R1    R(1,2)                  1.0214         -DE/DX =   -0.0001              !
 ! R2    R(1,3)                  1.0214         -DE/DX =   -0.0001              !
 ! A1    A(2,1,3)               97.6083         -DE/DX =    0.0                 !
 --------------------------------------------------------------------------------
 Lowest energy point so far.  Saving SCF results.
 Largest change from initial coordinates is atom    1       0.057 Angstoms.
 GradGradGradGradGradGradGradGradGradGradGradGradGradGradGradGradGradGrad

 Leave Link  103 at Wed Sep  3 18:23:33 2025, MaxMem= 12348030976 cpu:               0.2 elap:               0.0
 (Enter /home/hhratchian/gaussian/gdv-20250101-j30+/gdv/l202.exe)
                          Input orientation:                          
 ---------------------------------------------------------------------
 Center     Atomic      Atomic             Coordinates (Angstroms)
 Number     Number       Type             X           Y           Z
 ---------------------------------------------------------------------
      1          8           0       -0.000000    0.000000   -0.112312
      2          1           0        0.768591    0.000000    0.560440
      3          1           0       -0.768591   -0.000000    0.560440
 ---------------------------------------------------------------------
                    Distance matrix (angstroms):
                    1          2          3
     1  O    0.000000
     2  H    1.021433   0.000000
     3  H    1.021433   1.537181   0.000000
 Stoichiometry    H2O
 Framework group  C2V[C2(O),SGV(H2)]
 Deg. of freedom     2
 Full point group                 C2V     NOp   4
 RotChk:  IX=0 Diff= 1.08D-15
 Largest Abelian subgroup         C2V     NOp   4
 Largest concise Abelian subgroup C2      NOp   2
                         Standard orientation:                         
 ---------------------------------------------------------------------
 Center     Atomic      Atomic             Coordinates (Angstroms)
 Number     Number       Type             X           Y           Z
 ---------------------------------------------------------------------
      1          8           0       -0.000000    0.000000    0.134550
      2          1           0        0.000000    0.768591   -0.538201
      3          1           0       -0.000000   -0.768591   -0.538201
 ---------------------------------------------------------------------
 Rotational constants (GHZ):         623.7893652         424.4356424         252.5778703
 Leave Link  202 at Wed Sep  3 18:23:33 2025, MaxMem= 12348030976 cpu:               0.3 elap:               0.0
 (Enter /home/hhratchian/gaussian/gdv-20250101-j30+/gdv/l601.exe)
 Copying SCF densities to generalized density rwf, IOpCl= 0 IROHF=0.
 
 **********************************************************************
 
               Population analysis using the SCF Density.
 
 **********************************************************************
 
 Orbital symmetries:
       Occupied  (A1) (A1) (B2) (A1) (B1)
       Virtual   (A1) (B2)
 The electronic state is 1-A1.
 Alpha  occ. eigenvalues --      -18.91924      -0.99093      -0.47221      -0.31879      -0.21557
 Alpha virt. eigenvalues --        0.37763       0.46433
          Condensed to atoms (all electrons):
               1          2          3
     1  O    7.831934   0.237050   0.237050
     2  H    0.237050   0.648362  -0.038429
     3  H    0.237050  -0.038429   0.648362
 Mulliken charges:
               1
     1  O   -0.306034
     2  H    0.153017
     3  H    0.153017
 Sum of Mulliken charges=  -0.00000
 Mulliken charges with hydrogens summed into heavy atoms:
               1
     1  O   -0.000000
 Electronic spatial extent (au):  <R**2>=             18.7012
 Charge=             -0.0000 electrons
 Dipole moment (field-independent basis, Debye):
    X=             -0.0000    Y=             -0.0000    Z=             -1.6339  Tot=              1.6339
 Quadrupole moment (field-independent basis, Debye-Ang):
   XX=             -6.1558   YY=             -4.5562   ZZ=             -5.2886
   XY=              0.0000   XZ=              0.0000   YZ=             -0.0000
 Traceless Quadrupole moment (field-independent basis, Debye-Ang):
   XX=             -0.8223   YY=              0.7773   ZZ=              0.0449
   XY=              0.0000   XZ=              0.0000   YZ=             -0.0000
 Octapole moment (field-independent basis, Debye-Ang**2):
  XXX=              0.0000  YYY=              0.0000  ZZZ=             -0.0987  XYY=             -0.0000
  XXY=              0.0000  XXZ=              0.0481  XZZ=              0.0000  YZZ=             -0.0000
  YYZ=             -0.5140  XYZ=             -0.0000
 Hexadecapole moment (field-independent basis, Debye-Ang**3):
 XXXX=             -3.2988 YYYY=             -6.9978 ZZZZ=             -5.5232 XXXY=             -0.0000
 XXXZ=             -0.0000 YYYX=             -0.0000 YYYZ=             -0.0000 ZZZX=             -0.0000
 ZZZY=              0.0000 XXYY=             -1.8573 XXZZ=             -1.5241 YYZZ=             -1.8041
 XXYZ=              0.0000 YYXZ=              0.0000 ZZXY=             -0.0000
 N-N=           8.633421 E-N=        -195.809558  KE=          74.474487
 Symmetry A1   KE=          66.466663
 Symmetry A2   KE=           0.000000
 Symmetry B1   KE=           5.057462
 Symmetry B2   KE=           2.950362
 No NMR shielding tensors so no spin-rotation constants.
 Leave Link  601 at Wed Sep  3 18:23:33 2025, MaxMem= 12348030976 cpu:               2.2 elap:               0.1
 (Enter /home/hhratchian/gaussian/gdv-20250101-j30+/gdv/local/l9999.exe)
 Unable to Open any file for archive entry.
 1\1\GINC-NODE030\FOpt\RCAM-B3LYP\Gen\H2O1\AABOUTAKA\03-Sep-2025\0\\#p 
 CAM-B3LYP guess=read chkbasis geom=allcheck Opt Freq int=superfinegrid
  scf=xqc\\H2O — CAM-B3LYP/STO-3G q=0 m=1 [1/3: Stability]\\0,1\O,0.,
 0.,-0.1123117433\H,0.7685906676,0.,0.5604398716\H,-0.7685906676,0.,0.5
 604398716\\Version=ES64L-GDVRevJ.30+\State=1-A1\HF=-75.2885985\RMSD=1.
 581e-31\RMSF=7.419e-05\Dipole=0.,0.,0.6428115\Quadrupole=0.5779386,-0.
 6113362,0.0333976,0.,0.,0.\PG=C02V [C2(O1),SGV(H2)]\\@
 The archive entry for this job was punched.


 Money is a good servant but a bad master.
                        -- French Proverb
 Leave Link 9999 at Wed Sep  3 18:23:33 2025, MaxMem= 12348030976 cpu:               0.6 elap:               0.0
 Job cpu time:       0 days  0 hours  1 minutes 41.0 seconds.
 Elapsed time:       0 days  0 hours  0 minutes  8.2 seconds.
 File lengths (MBytes):  RWF=     38 Int=      0 D2E=      0 Chk=     17 Scr=      2
 Normal termination of Gaussian DV at Wed Sep  3 18:23:33 2025.
 (Enter /home/hhratchian/gaussian/gdv-20250101-j30+/gdv/local/l1.exe)
 Link1:  Proceeding to internal job step number  2.
 ----------------------------------------------------------------------
 #P Geom=AllCheck Guess=TCheck SCRF=Check GenChk RCAM-B3LYP/ChkBas Freq
 ----------------------------------------------------------------------
 1/10=4,29=7,30=1,38=1,40=1/1,3;
 2/12=2/2;
 3/5=7,6=2,11=2,14=-4,25=1,30=1,67=1,70=2,71=2,74=-40,75=-7,82=7,116=1,140=1,187=7/1,2,3;
 4/5=101/1;
 5/5=2,8=3,13=1,38=6,98=1/2,8;
 8/6=4,10=90,11=11/1;
 11/6=1,8=1,9=11,15=111,16=1/1,2,10;
 10/6=1/2;
 6/7=2,8=2,9=2,10=2,28=1/1;
 7/8=1,10=1,25=1/1,2,3,16;
 1/10=4,30=1/3;
 99//99;
 Leave Link    1 at Wed Sep  3 18:23:33 2025, MaxMem= 12348030976 cpu:               0.1 elap:               0.0
 (Enter /home/hhratchian/gaussian/gdv-20250101-j30+/gdv/local/l101.exe)
 
  Hrant - IAPOps =                         0
  Hrant - IAPOp1 =                         0
  Hrant - IAPOp2 =                         0
  Hrant - DoAP   =   F
 
 Structure from the checkpoint file:  "H2O_CAM-B3LYP_STO-3G_q0_m1.chk"
 -------------------------------------------------
 H2O — CAM-B3LYP/STO-3G q=0 m=1 [1/3: Stability]
 -------------------------------------------------
 Charge =     0 Multiplicity =     1
 Redundant internal coordinates found in file.  (GICs).
 O,0,0.,0.,-0.1123117433
 H,0,0.7685906676,0.,0.5604398716
 H,0,-0.7685906676,0.,0.5604398716
 
 Recover connectivity data from disk.
 Reading GIC definitions from chk.
 Skipping GIC derivative info from chk, if any.
 No input coordinate modifications requested.
 Forming B-matrix definitions.
 Forming B-matrix derivative definitions.
 ITRead=  0  0  0
 MicOpt= -1 -1 -1
 NAtoms=      3 NQM=        3 NQMF=       0 NMMI=      0 NMMIF=      0
                NMic=       0 NMicF=      0.
                    Isotopes and Nuclear Properties:
 (Nuclear quadrupole moments (NQMom) in fm**2, nuclear magnetic moments (NMagM)
  in nuclear magnetons)

  Atom         1           2           3
 IAtWgt=          16           1           1
 AtmWgt=  15.9949146   1.0078250   1.0078250
 NucSpn=           0           1           1
 AtZEff=    5.600000    1.000000    1.000000
 NQMom=    0.0000000   0.0000000   0.0000000
 NMagM=    0.0000000   2.7928460   2.7928460
 AtZNuc=   8.0000000   1.0000000   1.0000000
 Leave Link  101 at Wed Sep  3 18:23:33 2025, MaxMem= 12348030976 cpu:               0.5 elap:               0.3
 (Enter /home/hhratchian/gaussian/gdv-20250101-j30+/gdv/l103.exe)

 GradGradGradGradGradGradGradGradGradGradGradGradGradGradGradGradGradGrad
 Berny optimization.
 Initialization pass.
                           ----------------------------
                           !    Initial Parameters    !
                           ! (Angstroms and Degrees)  !
 --------------------------                            --------------------------
 ! Name  Definition              Value          Derivative Info.                !
 --------------------------------------------------------------------------------
 ! R1    R(1,2)                  1.0214         calculate D2E/DX2 analytically  !
 ! R2    R(1,3)                  1.0214         calculate D2E/DX2 analytically  !
 ! A1    A(2,1,3)               97.6083         calculate D2E/DX2 analytically  !
 --------------------------------------------------------------------------------
 Trust Radius=3.00D-01 FncErr=1.00D-07 GrdErr=1.00D-07 EigMax=2.50D+02 EigMin=1.00D-04
 Number of steps in this run=      2 maximum allowed number of steps=      2.
 GradGradGradGradGradGradGradGradGradGradGradGradGradGradGradGradGradGrad

 Leave Link  103 at Wed Sep  3 18:23:33 2025, MaxMem= 12348030976 cpu:               0.1 elap:               0.0
 (Enter /home/hhratchian/gaussian/gdv-20250101-j30+/gdv/l202.exe)
                          Input orientation:                          
 ---------------------------------------------------------------------
 Center     Atomic      Atomic             Coordinates (Angstroms)
 Number     Number       Type             X           Y           Z
 ---------------------------------------------------------------------
      1          8           0       -0.000000    0.000000   -0.112312
      2          1           0        0.768591    0.000000    0.560440
      3          1           0       -0.768591   -0.000000    0.560440
 ---------------------------------------------------------------------
                    Distance matrix (angstroms):
                    1          2          3
     1  O    0.000000
     2  H    1.021433   0.000000
     3  H    1.021433   1.537181   0.000000
 Stoichiometry    H2O
 Framework group  C2V[C2(O),SGV(H2)]
 Deg. of freedom     2
 Full point group                 C2V     NOp   4
 RotChk:  IX=0 Diff= 6.84D-16
 Largest Abelian subgroup         C2V     NOp   4
 Largest concise Abelian subgroup C2      NOp   2
                         Standard orientation:                         
 ---------------------------------------------------------------------
 Center     Atomic      Atomic             Coordinates (Angstroms)
 Number     Number       Type             X           Y           Z
 ---------------------------------------------------------------------
      1          8           0        0.000000    0.000000    0.134550
      2          1           0       -0.000000    0.768591   -0.538201
      3          1           0       -0.000000   -0.768591   -0.538201
 ---------------------------------------------------------------------
 Rotational constants (GHZ):         623.7893652         424.4356424         252.5778703
 Leave Link  202 at Wed Sep  3 18:23:33 2025, MaxMem= 12348030976 cpu:               0.3 elap:               0.0
 (Enter /home/hhratchian/gaussian/gdv-20250101-j30+/gdv/local/l301.exe)
 Basis read from chk: "H2O_CAM-B3LYP_STO-3G_q0_m1.chk" (5D, 7F)
 No pseudopotential information found on chk file.
 There are     4 symmetry adapted cartesian basis functions of A1  symmetry.
 There are     0 symmetry adapted cartesian basis functions of A2  symmetry.
 There are     1 symmetry adapted cartesian basis functions of B1  symmetry.
 There are     2 symmetry adapted cartesian basis functions of B2  symmetry.
 There are     4 symmetry adapted basis functions of A1  symmetry.
 There are     0 symmetry adapted basis functions of A2  symmetry.
 There are     1 symmetry adapted basis functions of B1  symmetry.
 There are     2 symmetry adapted basis functions of B2  symmetry.
     7 basis functions,    21 primitive gaussians,     7 cartesian basis functions
     5 alpha electrons        5 beta electrons
       nuclear repulsion energy         8.6334212907 Hartrees.
 IExCor=   2004019 DFT=T Ex+Corr=CAM-B3LYP ScaHFX=  1.000000
 ScaDFX=  1.000000  1.000000  1.000000  0.810000  1.000000  0.000000
 ScaDFX=  0.000000  0.000000  0.000000  0.000000  0.000000  0.000000
 Grid=SuperFine IRanWt=     -1 IRanGd=            0 ICorTp=0 IEDCtl=  2004
 HFx  wShort=  0.000000 wLong=  0.330000 cFull=  0.190000 cShort=  0.000000 cLong=  0.460000
 DFx  wShort=  0.330000 wLong=  0.000000 cFull=  0.350000 cShort=  0.460000 cLong=  0.000000
 NAtoms=    3 NActive=    3 NUniq=    2 SFac= 2.25D+00 NAtFMM=   60 NAOKFM=F Big=F
 Integral buffers will be    131072 words long.
 Raffenetti 2 integral format.
 Two-electron integral symmetry is turned on.
 No density basis found on file 200724.
 Leave Link  301 at Wed Sep  3 18:23:33 2025, MaxMem= 12348030976 cpu:               0.2 elap:               0.1
 (Enter /home/hhratchian/gaussian/gdv-20250101-j30+/gdv/l302.exe)
 NPDir=0 NMtPBC=     1 NCelOv=     1 NCel=       1 NClECP=     1 NCelD=      1
         NCelK=      1 NCelE2=     1 NClLst=     1 CellRange=     0.0.
 One-electron integrals computed using PRISM.
 One-electron integral symmetry used in STVInt
 NBasis=     7 RedAO= T EigKep=  3.84D-01  NBF=     4     0     1     2
 NBsUse=     7 1.00D-06 EigRej= -1.00D+00 NBFU=     4     0     1     2
 Precomputing XC quadrature grid using
 IXCGrd=   9 Grid=SuperFine IRanWt=          -1 IRanGd=           0 AccXCQ= 0.00D+00.
 Generated NRdTot=       0 NPtTot=      186373 NUsed=           0 NTot=          64
 NSgBfM=     7     7     7     7     7 MxSgAt=     3 MxSgA2=     3 SizInc=   0.000
 NMBTot=     1273 MaxBatPerAtom=      123 MaxMicBPerAtom=      427 NBfPt=             1126847.
 Leave Link  302 at Wed Sep  3 18:23:34 2025, MaxMem= 12348030976 cpu:               2.2 elap:               0.1
 (Enter /home/hhratchian/gaussian/gdv-20250101-j30+/gdv/l303.exe)
 DipDrv:  MaxL=1.
 Leave Link  303 at Wed Sep  3 18:23:34 2025, MaxMem= 12348030976 cpu:               0.2 elap:               0.0
 (Enter /home/hhratchian/gaussian/gdv-20250101-j30+/gdv/l401.exe)
 Initial guess from the checkpoint file:  "H2O_CAM-B3LYP_STO-3G_q0_m1.chk"
 B after Tr=     0.000000   -0.000000    0.000000
         Rot=    1.000000   -0.000000   -0.000000   -0.000000 Ang=   0.00 deg.
 AO Guess basis will be translated and rotated to current coordinates.
 JPrj=2 DoOrth=T DoCkMO=T.
 Initial guess orbital symmetries:
       Occupied  (A1) (A1) (B2) (A1) (B1)
       Virtual   (A1) (B2)
 The electronic state of the initial guess is 1-A1.
 Leave Link  401 at Wed Sep  3 18:23:34 2025, MaxMem= 12348030976 cpu:               0.3 elap:               0.1
 (Enter /home/hhratchian/gaussian/gdv-20250101-j30+/gdv/local/l502.exe)
 Keep R1 ints in memory in symmetry-blocked form, NReq=47924202.
 FoFCou: FMM=F IPFlag=           0 FMFlag=           0 FMFlg1=           0
         NFxFlg=           0 DoJE=F BraDBF=F KetDBF=F FulRan=T
         wScrn=  0.000000 ICntrl=       600 IOpCl=  0 I1Cent=           0 NGrid=           0
         NMat0=    1 NMatS0=     28 NMatT0=    0 NMatD0=    1 NMtDS0=    0 NMtDT0=    0
 Petite list used in FoFCou.
 Closed shell SCF:
 Using DIIS extrapolation, IDIIS=  1040.
 NGot= 12348030976 LenX= 12348027978 LenY= 12348027096
 Requested convergence on RMS density matrix=1.00D-08 within  32 cycles.
 Requested convergence on MAX density matrix=1.00D-06.
 Requested convergence on             energy=1.00D-06.
 No special actions if energy rises.
 
  Hrant - CycOpn.
 

 Cycle   1  Pass 1  IDiag  1:
 E= -75.2885984672210    
 DIIS: error= 9.16D-12 at cycle   1 NSaved=   1.
 NSaved= 1 IEnMin= 1 EnMin= -75.2885984672210     IErMin= 1 ErrMin= 9.16D-12
 ErrMax= 9.16D-12  0.00D+00 EMaxC= 1.00D-01 BMatC= 3.79D-22 BMatP= 3.79D-22
 Rises=F IDIUse=1 WtCom= 1.00D+00 WtEn= 0.00D+00
 Coeff-Com:  0.100D+01
 Coeff:      0.100D+01
 Gap=     0.593 Goal=   None    Shift=    0.000
 Skip diagonalization as Alpha Fock matrix is already diagonal.
 RMSDP=3.50D-32 MaxDP=9.55D-32              OVMax= 0.00D+00

 SCF Done:  E(RCAM-B3LYP) =  -75.2885984672     A.U. after    1 cycles
            NFock=  1  Conv=0.35D-31     -V/T= 2.0109
 KE=          74.474487 PE=        -195.809558 EE=          37.413051
 Leave Link  502 at Wed Sep  3 18:23:34 2025, MaxMem= 12348030976 cpu:               3.4 elap:               0.1
 (Enter /home/hhratchian/gaussian/gdv-20250101-j30+/gdv/l508.exe)
 QCSCF skips out because SCF is already converged.
 Leave Link  508 at Wed Sep  3 18:23:34 2025, MaxMem= 12348030976 cpu:               0.1 elap:               0.0
 (Enter /home/hhratchian/gaussian/gdv-20250101-j30+/gdv/l801.exe)
 DoSCS=F DFT=T ScalE2(SS,OS)=  1.000000  1.000000
 Range of M.O.s used for correlation:     1     7
 NBasis=     7 NAE=     5 NBE=     5 NFC=     0 NFV=     0
 NROrb=      7 NOA=     5 NOB=     5 NVA=     2 NVB=     2
 Leave Link  801 at Wed Sep  3 18:23:34 2025, MaxMem= 12348030976 cpu:               0.2 elap:               0.0
 (Enter /home/hhratchian/gaussian/gdv-20250101-j30+/gdv/l1101.exe)
 Using compressed storage, NAtomX=     3.
 Will process      4 centers per pass.
 Leave Link 1101 at Wed Sep  3 18:23:34 2025, MaxMem= 12348030976 cpu:               1.8 elap:               0.1
 (Enter /home/hhratchian/gaussian/gdv-20250101-j30+/gdv/l1102.exe)
 Symmetrizing basis deriv contribution to polar:
 IMax=3 JMax=2 DiffMx= 0.00D+00
 Leave Link 1102 at Wed Sep  3 18:23:34 2025, MaxMem= 12348030976 cpu:               0.2 elap:               0.0
 (Enter /home/hhratchian/gaussian/gdv-20250101-j30+/gdv/l1110.exe)
 Forming Gx(P) for the SCF density, NAtomX=     3.
 Integral derivatives from FoFJK, PRISM(SPDF).
 Do as many integral derivatives as possible in FoFJK.
 G2DrvN: MDV=   12348030509.
 G2DrvN: will do     4 centers at a time, making    1 passes.
 Calling FoFCou, ICntrl=  3107 FMM=F I1Cent=   0 AccDes= 0.00D+00.
 FoFJK:  IHMeth= 1 ICntrl=    3107 DoSepK=T KAlg= 0 I1Cent=           0 FoldK=F
 IRaf=         1 NMat=       1 IRICut=       1 DoRegI=T DoRafI=F ISym2E= 1 IDoP0=0 IntGTp=1.
 FoFCou: FMM=F IPFlag=           0 FMFlag=      100000 FMFlg1=           0
         NFxFlg=           0 DoJE=F BraDBF=F KetDBF=F FulRan=T
         wScrn=  0.000000 ICntrl=      3507 IOpCl=  0 I1Cent=           0 NGrid=           0
         NMat0=    1 NMatS0=      1 NMatT0=    0 NMatD0=    1 NMtDS0=    0 NMtDT0=    0
 Petite list used in FoFCou.
 End of G2Drv FD prop file    721 does not exist.
 End of G2Drv FD prop file    722 does not exist.
 End of G2Drv FD prop file    788 does not exist.
 End of G2Drv FD prop file    804 does not exist.
 Leave Link 1110 at Wed Sep  3 18:23:34 2025, MaxMem= 12348030976 cpu:               4.8 elap:               0.2
 (Enter /home/hhratchian/gaussian/gdv-20250101-j30+/gdv/l1002.exe)
 Minotr:  Closed shell wavefunction.
          IDoAtm=111
          Direct CPHF calculation.
          Differentiating once with respect to electric field.
                with respect to dipole field.
          Differentiating once with respect to nuclear coordinates.
          Using symmetry in CPHF.
          Requested convergence is 1.0D-08 RMS, and 1.0D-07 maximum.
          Secondary convergence is 1.0D-12 RMS, and 1.0D-12 maximum.
          NewPWx=T KeepS1=F KeepF1=F KeepIn=T MapXYZ=F SortEE=F KeepMc=T.
         1476 words used for storage of precomputed grid.
 Keep R1 ints in memory in symmetry-blocked form, NReq=47567787.
 FoFCou: FMM=F IPFlag=           0 FMFlag=           0 FMFlg1=           0
         NFxFlg=           0 DoJE=F BraDBF=F KetDBF=F FulRan=T
         wScrn=  0.000000 ICntrl=       600 IOpCl=  0 I1Cent=           0 NGrid=           0
         NMat0=    1 NMatS0=     28 NMatT0=    0 NMatD0=    1 NMtDS0=    0 NMtDT0=    0
 Petite list used in FoFCou.
          MDV=   12348030976 using Grid=Fine.
          Solving linear equations simultaneously, MaxMat=       0.
          There are     9 degrees of freedom in the 1st order CPHF.  IDoFFX=4 NUNeed=     9.
      8 vectors produced by pass  0 Test12= 1.11D-16 1.11D-08 XBig12= 1.76D+00 9.48D-01.
 AX will form     8 AO Fock derivatives at one time.
      2 vectors produced by pass  1 Test12= 1.11D-16 1.11D-08 XBig12= 1.20D-03 3.36D-02.
 InvSVY:  IOpt=1 It=  1 EMax= 2.78D-17
 Solved reduced A of dimension    10 with     9 vectors.
 FullF1:  Do perturbations      1 to       9.
 Isotropic polarizability for W=    0.000000        2.86 Bohr**3.
 End of Minotr FD prop file    721 does not exist.
 End of Minotr FD prop file    722 does not exist.
 End of Minotr FD prop file    788 does not exist.
 End of Minotr FD prop file    804 does not exist.
 Leave Link 1002 at Wed Sep  3 18:23:36 2025, MaxMem= 12348030976 cpu:              80.1 elap:               1.5
 (Enter /home/hhratchian/gaussian/gdv-20250101-j30+/gdv/l601.exe)
 Copying SCF densities to generalized density rwf, IOpCl= 0 IROHF=0.
 
 **********************************************************************
 
               Population analysis using the SCF Density.
 
 **********************************************************************
 
 Orbital symmetries:
       Occupied  (A1) (A1) (B2) (A1) (B1)
       Virtual   (A1) (B2)
 The electronic state is 1-A1.
 Alpha  occ. eigenvalues --      -18.91924      -0.99093      -0.47221      -0.31879      -0.21557
 Alpha virt. eigenvalues --        0.37763       0.46433
          Condensed to atoms (all electrons):
               1          2          3
     1  O    7.831934   0.237050   0.237050
     2  H    0.237050   0.648362  -0.038429
     3  H    0.237050  -0.038429   0.648362
 Mulliken charges:
               1
     1  O   -0.306034
     2  H    0.153017
     3  H    0.153017
 Sum of Mulliken charges=  -0.00000
 Mulliken charges with hydrogens summed into heavy atoms:
               1
     1  O   -0.000000
 APT charges:
               1
     1  O   -0.112838
     2  H    0.056419
     3  H    0.056419
 Sum of APT charges=   0.00000
 APT charges with hydrogens summed into heavy atoms:
               1
     1  O    0.000000
 Electronic spatial extent (au):  <R**2>=             18.7012
 Charge=             -0.0000 electrons
 Dipole moment (field-independent basis, Debye):
    X=             -0.0000    Y=             -0.0000    Z=             -1.6339  Tot=              1.6339
 Quadrupole moment (field-independent basis, Debye-Ang):
   XX=             -6.1558   YY=             -4.5562   ZZ=             -5.2886
   XY=              0.0000   XZ=              0.0000   YZ=             -0.0000
 Traceless Quadrupole moment (field-independent basis, Debye-Ang):
   XX=             -0.8223   YY=              0.7773   ZZ=              0.0449
   XY=              0.0000   XZ=              0.0000   YZ=             -0.0000
 Octapole moment (field-independent basis, Debye-Ang**2):
  XXX=              0.0000  YYY=             -0.0000  ZZZ=             -0.0987  XYY=             -0.0000
  XXY=              0.0000  XXZ=              0.0481  XZZ=              0.0000  YZZ=              0.0000
  YYZ=             -0.5140  XYZ=             -0.0000
 Hexadecapole moment (field-independent basis, Debye-Ang**3):
 XXXX=             -3.2988 YYYY=             -6.9978 ZZZZ=             -5.5232 XXXY=             -0.0000
 XXXZ=             -0.0000 YYYX=             -0.0000 YYYZ=             -0.0000 ZZZX=             -0.0000
 ZZZY=              0.0000 XXYY=             -1.8573 XXZZ=             -1.5241 YYZZ=             -1.8041
 XXYZ=              0.0000 YYXZ=              0.0000 ZZXY=             -0.0000
 N-N=           8.633421 E-N=        -195.809558  KE=          74.474487
 Symmetry A1   KE=          66.466663
 Symmetry A2   KE=           0.000000
 Symmetry B1   KE=           5.057462
 Symmetry B2   KE=           2.950362
 No NMR shielding tensors so no spin-rotation constants.
 Leave Link  601 at Wed Sep  3 18:23:37 2025, MaxMem= 12348030976 cpu:               2.3 elap:               0.1
 (Enter /home/hhratchian/gaussian/gdv-20250101-j30+/gdv/l701.exe)
 ... and contract with generalized density number  0.
 Compute integral second derivatives.
 Leave Link  701 at Wed Sep  3 18:23:37 2025, MaxMem= 12348030976 cpu:               2.4 elap:               0.1
 (Enter /home/hhratchian/gaussian/gdv-20250101-j30+/gdv/l702.exe)
 L702 exits ... SP integral derivatives will be done elsewhere.
 Leave Link  702 at Wed Sep  3 18:23:37 2025, MaxMem= 12348030976 cpu:               0.2 elap:               0.0
 (Enter /home/hhratchian/gaussian/gdv-20250101-j30+/gdv/l703.exe)
 Integral derivatives from FoFJK, PRISM(SPDF).
 Compute integral second derivatives, UseDBF=F ICtDFT=           0.
 Calling FoFJK, ICntrl=    100127 FMM=F ISym2X=1 I1Cent= 0 IOpClX= 0 NMat=1 NMatS=1 NMatT=0.
 FoFJK:  IHMeth= 1 ICntrl=  100127 DoSepK=T KAlg= 0 I1Cent=           0 FoldK=F
 IRaf=         1 NMat=       1 IRICut=       1 DoRegI=T DoRafI=F ISym2E= 1 IDoP0=0 IntGTp=1.
 FoFCou: FMM=F IPFlag=           0 FMFlag=      100000 FMFlg1=         800
         NFxFlg=           0 DoJE=F BraDBF=F KetDBF=F FulRan=T
         wScrn=  0.000000 ICntrl=    100527 IOpCl=  0 I1Cent=           0 NGrid=           0
         NMat0=    1 NMatS0=      1 NMatT0=    0 NMatD0=    1 NMtDS0=    0 NMtDT0=    0
 Petite list used in FoFCou.
 Leave Link  703 at Wed Sep  3 18:23:37 2025, MaxMem= 12348030976 cpu:               9.6 elap:               0.2
 (Enter /home/hhratchian/gaussian/gdv-20250101-j30+/gdv/l716.exe)
 Dipole        =-3.25200461D-17-2.14595439D-17-6.42811541D-01
 Polarizability= 3.55148390D-02 3.68199588D-16 5.57848999D+00
                 2.75091410D-16-9.70458663D-15 2.96611786D+00
 Full mass-weighted force constant matrix:
 Low frequencies ---   -0.0015    0.0008    0.0009   33.5414   38.2730   43.9216
 Low frequencies --- 2026.5289 3694.9908 3921.9431
 Diagonal vibrational polarizability:
        0.0000000       0.0788342       0.1447636
 Harmonic frequencies (cm**-1), IR intensities (KM/Mole), Raman scattering
 activities (A**4/AMU), depolarization ratios for plane and unpolarized
 incident light, reduced masses (AMU), force constants (mDyne/A),
 and normal coordinates:
                      1                      2                      3
                     A1                     A1                     B2
 Frequencies --   2026.5289              3694.9908              3921.9431
 Red. masses --      1.0775                 1.0500                 1.0749
 Frc consts  --      2.6072                 8.4467                 9.7414
 IR Inten    --      3.2100                62.7719                45.0592
  Atom  AN      X      Y      Z        X      Y      Z        X      Y      Z
     1   8    -0.00  -0.00  -0.07     0.00   0.00   0.05    -0.00  -0.07   0.00
     2   1     0.00   0.45   0.54     0.00   0.57  -0.42    -0.00   0.53  -0.46
     3   1     0.00  -0.45   0.54    -0.00  -0.57  -0.42     0.00   0.53   0.46

 -------------------
 - Thermochemistry -
 -------------------
 Temperature 298.150 Kelvin.  Pressure 1.00000 Atm.
 Atom     1 has atomic number  8 and mass  15.99491
 Atom     2 has atomic number  1 and mass   1.00783
 Atom     3 has atomic number  1 and mass   1.00783
 Molecular mass:    18.01056 amu.
 Principal axes and moments of inertia in atomic units:
                                 1                 2                 3
     Eigenvalues --            2.893190          4.252096          7.145286
           X                  -0.000000          0.000000          1.000000
           Y                   1.000000          0.000000          0.000000
           Z                  -0.000000          1.000000         -0.000000
 This molecule is an asymmetric top.
 Rotational symmetry number  2.
 Rotational temperatures (Kelvin)     29.93717    20.36970    12.12183
 Rotational constants (GHZ):         623.78937   424.43564   252.57787
 Zero-point vibrational energy      57680.7 (Joules/Mol)
                                   13.78602 (Kcal/Mol)
 Vibrational temperatures:   2915.72  5316.27  5642.80
          (Kelvin)
 
 Zero-point correction=                           0.021969 (Hartree/Particle)
 Thermal correction to Energy=                    0.024803
 Thermal correction to Enthalpy=                  0.025747
 Thermal correction to Gibbs Free Energy=         0.004136
 Sum of electronic and zero-point Energies=            -75.266629
 Sum of electronic and thermal Energies=               -75.263796
 Sum of electronic and thermal Enthalpies=             -75.262852
 Sum of electronic and thermal Free Energies=          -75.284462
 
                     E (Thermal)             CV                S
                      KCal/Mol        Cal/Mol-Kelvin    Cal/Mol-Kelvin
 Total                   15.564              5.972             45.483
 Electronic               0.000              0.000              0.000
 Translational            0.889              2.981             34.608
 Rotational               0.889              2.981             10.873
 Vibrational             13.786              0.011              0.001
                       Q            Log10(Q)             Ln(Q)
 Total Bot       0.125130D-01         -1.902640         -4.380991
 Total V=0       0.159435D+09          8.202585         18.887150
 Vib (Bot)       0.784873D-10        -10.105200        -23.268084
 Vib (V=0)       0.100006D+01          0.000025          0.000057
 Electronic      0.100000D+01          0.000000          0.000000
 Translational   0.300431D+07          6.477745         14.915559
 Rotational      0.530659D+02          1.724815          3.971534
 
                                          H2O — CAM-B3LYP/STO-3G q=0 m=1 [1/3: 
 Stability]
                                                             IR Spectrum
 
     3       3                                                     2                                                                 
     9       6                                                     0                                                                 
     2       9                                                     2                                                                 
     2       5                                                     7                                                                 
 
     X       X                                                     X                                                                 
     X       X                                                                                                                       
     X       X                                                                                                                       
     X       X                                                                                                                       
     X       X                                                                                                                       
     X       X                                                                                                                       
     X       X                                                                                                                       
     X       X                                                                                                                       
     X       X                                                                                                                       
     X       X                                                                                                                       
     X       X                                                                                                                       
     X       X                                                                                                                       
     X       X                                                                                                                       
     X       X                                                                                                                       
             X                                                                                                                       
             X                                                                                                                       
             X                                                                                                                       
             X                                                                                                                       
             X                                                                                                                       
             X                                                                                                                       
 
 ***** Axes restored to original set *****
 -------------------------------------------------------------------
 Center     Atomic                   Forces (Hartrees/Bohr)
 Number     Number              X              Y              Z
 -------------------------------------------------------------------
      1        8           0.000000000   -0.000000000    0.000166582
      2        1          -0.000062885    0.000000000   -0.000083291
      3        1           0.000062885    0.000000000   -0.000083291
 -------------------------------------------------------------------
 Cartesian Forces:  Max     0.000166582 RMS     0.000074187
 Force constants in Cartesian coordinates: 
                1             2             3             4             5 
      1  0.620142D+00
      2  0.000000D+00  0.130682D-03
      3  0.000000D+00  0.000000D+00  0.526185D+00
      4 -0.310071D+00  0.000000D+00 -0.166830D+00  0.345588D+00
      5  0.000000D+00 -0.653412D-04  0.000000D+00  0.000000D+00  0.541246D-04
      6 -0.271351D+00  0.000000D+00 -0.263092D+00  0.219090D+00  0.000000D+00
      7 -0.310071D+00  0.000000D+00  0.166830D+00 -0.355168D-01  0.000000D+00
      8  0.000000D+00 -0.653412D-04  0.000000D+00  0.000000D+00  0.112166D-04
      9  0.271351D+00  0.000000D+00 -0.263092D+00 -0.522608D-01  0.000000D+00
                6             7             8             9 
      6  0.250326D+00
      7  0.522608D-01  0.345588D+00
      8  0.000000D+00  0.000000D+00  0.541246D-04
      9  0.127660D-01 -0.219090D+00  0.000000D+00  0.250326D+00
 FormGI is forming the generalized inverse of G from B-inverse, IUseBI=4.
 NTrRot=    -1 NTRed=     3 NAtoms=     3 NSkip=     0 NRank=     3 IsLin=F EigSml=6.9494D-01
 Force constants in internal coordinates: 
                1             2             3 
      1  0.521424D+00
      2 -0.261524D-01  0.521424D+00
      3  0.351180D-01  0.351180D-01  0.277333D+00
 Leave Link  716 at Wed Sep  3 18:23:38 2025, MaxMem= 12348030976 cpu:               0.2 elap:               0.0
 (Enter /home/hhratchian/gaussian/gdv-20250101-j30+/gdv/l103.exe)

 GradGradGradGradGradGradGradGradGradGradGradGradGradGradGradGradGradGrad
 Berny optimization.
 Internal  Forces:  Max     0.000102177 RMS     0.000086724
 Search for a local minimum.
 Step number   1 out of a maximum of    2
 All quantities printed in internal units (Hartrees-Bohrs-Radians)
 Second derivative matrix not updated -- analytic derivatives used.
 The second derivative matrix:
                          R1        R2        A1
           R1           0.52142
           R2          -0.02615   0.52142
           A1           0.03512   0.03512   0.27733
 ITU=  0
     Eigenvalues ---    0.26655   0.50606   0.54758
 Angle between quadratic step and forces=  17.29 degrees.
 Linear search not attempted -- first point.
 GrdOpt: GIC=T ITstSp=  0 NP=   1 DidLin=F DidDIS=F IDoGRo=0 IDoRot=0
         ISwap=1 XLin= 0.000 DXMaxT= 0.300
 Iteration  1 RMS(Cart)=  0.00008170 RMS(Int)=  0.00000002
 Iteration  2 RMS(Cart)=  0.00000001 RMS(Int)=  0.00000000
 ClnCor:  largest displacement from symmetrization is 2.22D-16 for atom     3.
 Variable       Old X    -DE/DX   Delta X   Delta X   Delta X     New X
                                 (Linear)    (Quad)   (Total)
    R1        1.93023  -0.00010   0.00000  -0.00022  -0.00022   1.93001
    R2        1.93023  -0.00010   0.00000  -0.00022  -0.00022   1.93001
    A1        1.70359   0.00004   0.00000   0.00020   0.00020   1.70379
         Item               Value     Threshold  Converged?
 Maximum Force            0.000102     0.000450     YES
 RMS     Force            0.000087     0.000300     YES
 Maximum Displacement     0.000196     0.001800     YES
 RMS     Displacement     0.000142     0.001200     YES
 Predicted change in Energy=-2.673784D-08
 Optimization completed.
    -- Stationary point found.
                           ----------------------------
                           !   Optimized Parameters   !
                           ! (Angstroms and Degrees)  !
 --------------------------                            --------------------------
 ! Name  Definition              Value          Derivative Info.                !
 --------------------------------------------------------------------------------
 ! R1    R(1,2)                  1.0214         -DE/DX =   -0.0001              !
 ! R2    R(1,3)                  1.0214         -DE/DX =   -0.0001              !
 ! A1    A(2,1,3)               97.6083         -DE/DX =    0.0                 !
 --------------------------------------------------------------------------------
 GradGradGradGradGradGradGradGradGradGradGradGradGradGradGradGradGradGrad

 Leave Link  103 at Wed Sep  3 18:23:38 2025, MaxMem= 12348030976 cpu:               0.2 elap:               0.0
 (Enter /home/hhratchian/gaussian/gdv-20250101-j30+/gdv/local/l9999.exe)

 ----------------------------------------------------------------------

 Electric dipole moment (input orientation):
 (Debye = 10**-18 statcoulomb cm , SI units = C m)
                  (au)            (Debye)         (10**-30 SI)
   Tot        0.642812D+00      0.163386D+01      0.544998D+01
   x          0.000000D+00      0.000000D+00      0.000000D+00
   y          0.000000D+00      0.000000D+00      0.000000D+00
   z          0.642812D+00      0.163386D+01      0.544998D+01

 Dipole polarizability, Alpha (input orientation).
 (esu units = cm**3 , SI units = C**2 m**2 J**-1)
 Alpha(0;0):
               (au)            (10**-24 esu)      (10**-40 SI)
   iso        0.286004D+01      0.423814D+00      0.471557D+00
   aniso      0.480299D+01      0.711730D+00      0.791907D+00
   xx         0.557849D+01      0.826647D+00      0.919769D+00
   yx         0.000000D+00      0.000000D+00      0.000000D+00
   yy         0.355148D-01      0.526276D-02      0.585561D-02
   zx         0.000000D+00      0.000000D+00      0.000000D+00
   zy         0.000000D+00      0.000000D+00      0.000000D+00
   zz         0.296612D+01      0.439533D+00      0.489047D+00

 ----------------------------------------------------------------------

 Dipole orientation:
     8         -0.00000000         -0.00000000         -0.21223844
     1          1.45242586          0.00000000          1.05907787
     1         -1.45242586         -0.00000000          1.05907787

 Electric dipole moment (dipole orientation):
 (Debye = 10**-18 statcoulomb cm , SI units = C m)
                  (au)            (Debye)         (10**-30 SI)
   Tot        0.642812D+00      0.163386D+01      0.544998D+01
   x          0.000000D+00      0.000000D+00      0.000000D+00
   y          0.000000D+00      0.000000D+00      0.000000D+00
   z          0.642812D+00      0.163386D+01      0.544998D+01

 Dipole polarizability, Alpha (dipole orientation).
 (esu units = cm**3 , SI units = C**2 m**2 J**-1)
 Alpha(0;0):
               (au)            (10**-24 esu)      (10**-40 SI)
   iso        0.286004D+01      0.423814D+00      0.471557D+00
   aniso      0.480299D+01      0.711730D+00      0.791907D+00
   xx         0.557849D+01      0.826647D+00      0.919769D+00
   yx         0.000000D+00      0.000000D+00      0.000000D+00
   yy         0.355148D-01      0.526276D-02      0.585561D-02
   zx         0.000000D+00      0.000000D+00      0.000000D+00
   zy         0.000000D+00      0.000000D+00      0.000000D+00
   zz         0.296612D+01      0.439533D+00      0.489047D+00

 ----------------------------------------------------------------------
 Unable to Open any file for archive entry.
 1\1\GINC-NODE030\Freq\RCAM-B3LYP\Gen\H2O1\AABOUTAKA\03-Sep-2025\0\\#P 
 Geom=AllCheck Guess=TCheck SCRF=Check GenChk RCAM-B3LYP/ChkBas Freq\\H
 2O — CAM-B3LYP/STO-3G q=0 m=1 [1/3: Stability]\\0,1\O,0.,0.,-0.11231
 17433\H,0.7685906676,0.,0.5604398716\H,-0.7685906676,0.,0.5604398716\\
 Version=ES64L-GDVRevJ.30+\State=1-A1\HF=-75.2885985\RMSD=3.502e-32\RMS
 F=7.419e-05\ZeroPoint=0.0219694\Thermal=0.0248025\ETot=-75.263796\HTot
 =-75.2628518\GTot=-75.284462\Dipole=0.,0.,0.6428115\DipoleDeriv=0.0171
 598,0.,0.,0.,-0.5056267,0.,0.,0.,0.1499525,-0.0085799,0.,-0.1666614,0.
 ,0.2528134,0.,-0.2287991,0.,-0.0749762,-0.0085799,0.,0.1666614,0.,0.25
 28134,0.,0.2287991,0.,-0.0749762\Polar=5.57849,0.,0.0355148,0.,0.,2.96
 61179\Quadrupole=0.5779386,-0.6113362,0.0333976,0.,0.,0.\PG=C02V [C2(O
 1),SGV(H2)]\NImag=0\\0.62014227,0.,0.00013068,0.,0.,0.52618471,-0.3100
 7114,0.,-0.16682963,0.34558792,0.,-0.00006534,0.,0.,0.00005412,-0.2713
 5120,0.,-0.26309236,0.21909042,0.,0.25032631,-0.31007114,0.,0.16682963
 ,-0.03551678,0.,0.05226078,0.34558792,0.,-0.00006534,0.,0.,0.00001122,
 0.,0.,0.00005412,0.27135120,0.,-0.26309236,-0.05226078,0.,0.01276605,-
 0.21909042,0.,0.25032631\\0.,0.,-0.00016658,0.00006288,0.,0.00008329,-
 0.00006288,0.,0.00008329\\\@
 The archive entry for this job was punched.


 FROM AN ANONYMOUS WRITER, ON PERSPECTIVE:

 MAN, DESPITE HIS ARTISTIC PRETENSIONS, HIS SOPHISTICATION AND MANY 
 ACCOMPLISHMENTS, OWES THE FACT OF HIS EXISTENCE TO A SIX-INCH LAYER OF 
 TOPSOIL AND THE FACT THAT IT RAINS.
 Job cpu time:       0 days  0 hours  1 minutes 51.6 seconds.
 Elapsed time:       0 days  0 hours  0 minutes  3.1 seconds.
 File lengths (MBytes):  RWF=     38 Int=      0 D2E=      0 Chk=     17 Scr=      2
 Normal termination of Gaussian DV at Wed Sep  3 18:23:38 2025.
 Initial command:
 /home/hhratchian/gaussian/gdv-20250101-j30+/gdv/local/l1.exe "/scratch/aaboutaka/1590344/Gau-3814934.inp" -scrdir="/scratch/aaboutaka/1590344/"
 Default is to use a total of  56 processors:
                               56 via shared-memory
                                1 via Linda
 Entering Link 1 = /home/hhratchian/gaussian/gdv-20250101-j30+/gdv/local/l1.exe PID=   3820603.
  
 Copyright (c) 1988-2024, Gaussian, Inc.  All Rights Reserved.
  
 This is the private, development version of
 the Gaussian(R) DV system of programs. It is based on
 the Gaussian(R) 16 system (copyright 2016, Gaussian, Inc.),
 the Gaussian(R) 09 system (copyright 2009, Gaussian, Inc.),
 the Gaussian(R) 03 system (copyright 2003, Gaussian, Inc.),
 the Gaussian(R) 98 system (copyright 1998, Gaussian, Inc.),
 the Gaussian(R) 94 system (copyright 1995, Gaussian, Inc.),
 the Gaussian 92(TM) system (copyright 1992, Gaussian, Inc.),
 the Gaussian 90(TM) system (copyright 1990, Gaussian, Inc.),
 the Gaussian 88(TM) system (copyright 1988, Gaussian, Inc.),
 the Gaussian 86(TM) system (copyright 1986, Carnegie Mellon
 University), and the Gaussian 82(TM) system (copyright 1983,
 Carnegie Mellon University). Gaussian is a federally registered
 trademark of Gaussian, Inc.
  
 This software contains proprietary and confidential information,
 including trade secrets, belonging to Gaussian, Inc.
  
 This software is provided under written license and may be
 used, copied, transmitted, or stored only in accord with that
 written license.
  
 The following legend is applicable only to US Government
 contracts under FAR:
  
                    RESTRICTED RIGHTS LEGEND
  
 Use, reproduction and disclosure by the US Government is
 subject to restrictions as set forth in subparagraphs (a)
 and (c) of the Commercial Computer Software - Restricted
 Rights clause in FAR 52.227-19.
  
 Gaussian, Inc.
 340 Quinnipiac St., Bldg. 40, Wallingford CT 06492
  
  
 ---------------------------------------------------------------
 Warning -- This program may not be used in any manner that
 competes with the business of Gaussian, Inc. or will provide
 assistance to any competitor of Gaussian, Inc.  The licensee
 of this program is prohibited from giving any competitor of
 Gaussian, Inc. access to this program.  By using this program,
 the user acknowledges that Gaussian, Inc. is engaged in the
 business of creating and licensing software in the field of
 computational chemistry and represents and warrants to the
 licensee that it is not a competitor of Gaussian, Inc. and that
 it will not use this program in any manner prohibited above.
 ---------------------------------------------------------------
  

 Cite this work as:
 Gaussian Development Version, Revision J.30+,
 M. J. Frisch, G. W. Trucks, G. Scalmani, J. R. Cheeseman, X. Li, 
 J. Bloino, B. G. Janesko, A. V. Marenich, J. Zheng, F. Lipparini, 
 A. Jenkins, A. Liu, H. Liu, H. B. Schlegel, G. E. Scuseria, 
 M. A. Robb, V. Barone, G. A. Petersson, H. Nakatsuji, B. Mennucci, 
 C. Adamo, N. Rega, M. Caricato, H. P. Hratchian, J. V. Ortiz, 
 F. Pawlowski, A. F. Izmaylov, H. Hu, C. Liao, J. L. Sonnenberg, 
 D. Williams-Young, F. Ding, R. Gomperts, F. Egidi, J. Goings, 
 B. Peng, A. Petrone, T. Henderson, D. Ranasinghe, V. G. Zakrzewski, 
 J. Gao, G. Zheng, W. Liang, M. Hada, M. Ehara, K. Toyota, R. Fukuda, 
 J. Hasegawa, M. Ishida, T. Nakajima, Y. Honda, O. Kitao, H. Nakai, 
 T. Vreven, K. Throssell, J. A. Montgomery, Jr., J. E. Peralta, 
 F. Ogliaro, M. J. Bearpark, J. J. Heyd, E. N. Brothers, K. N. Kudin, 
 V. N. Staroverov, T. A. Keith, R. Kobayashi, J. Normand, 
 K. Raghavachari, A. P. Rendell, J. C. Burant, S. S. Iyengar, 
 M. Cossi, J. M. Millam, M. Klene, R. Cammi, R. L. Martin, O. Farkas, 
 J. B. Foresman, and D. J. Fox, Gaussian, Inc., Wallingford CT, 2024.
 
 *******************************************
 Gaussian DV:  ES64L-GDVRevJ.30+ 18-Dec-2024
                  3-Sep-2025 
 *******************************************
 %oldchk=H2O_CAM-B3LYP_STO-3G_q0_m1.chk
 %chk=H2O_CAM-B3LYP_STO-3G_q0_m1_stab.chk
 Copying data from "H2O_CAM-B3LYP_STO-3G_q0_m1.chk" to current chk file "H2O_CAM-B3LYP_STO-3G_q0_m1_stab.chk"
 IOpt=  2 FromEx=T IUOpen= 4 IOptOp= 5 NList=   0 IFRang= 0 IUIn= 4 IUOut= 2.
 ----------------------------------------------------------------------
 #p CAM-B3LYP stable=opt guess=read chkbasis geom=allcheck int=superfin
 egrid
 ----------------------------------------------------------------------
 1/29=7,38=1,172=1/1;
 2/12=2/2;
 3/5=7,6=2,11=2,14=-4,25=1,30=1,67=1,74=-40,75=-7,116=-2/1,2,3;
 4/5=1/1;
 5/5=2,38=6/2;
 6/7=2,8=2,9=2,10=2,28=1/1;
 8/6=1,10=90,11=11/1;
 9/8=-3,42=1,46=1/14;
 5/5=2,8=3,17=40,38=6/8(-2);
 6/7=2,8=2,9=2,10=2,28=1/1;
 99/5=1,9=1/99;
 Leave Link    1 at Wed Sep  3 18:23:38 2025, MaxMem= 12348030976 cpu:               0.3 elap:               0.1
 (Enter /home/hhratchian/gaussian/gdv-20250101-j30+/gdv/local/l101.exe)
 
  Hrant - IAPOps =                         0
  Hrant - IAPOp1 =                         0
  Hrant - IAPOp2 =                         0
  Hrant - DoAP   =   F
 
 Structure from the checkpoint file:  "H2O_CAM-B3LYP_STO-3G_q0_m1_stab.chk"
 -------------------------------------------------
 H2O — CAM-B3LYP/STO-3G q=0 m=1 [1/3: Stability]
 -------------------------------------------------
 Charge =     0 Multiplicity =     1
 Redundant internal coordinates found in file.  (GICs).
 O,0,0.,0.,-0.1123117433
 H,0,0.7685906676,0.,0.5604398716
 H,0,-0.7685906676,0.,0.5604398716
 
 Recover connectivity data from disk.
 Reading GIC definitions from chk.
 Reading GIC derivative info from chk.
 ITRead=  0  0  0
 MicOpt= -1 -1 -1
                           ----------------------------
                           !    Current Parameters    !
                           ! (Angstroms and Degrees)  !
 --------------------------                            --------------------------
 ! Name  Definition              Value                                          !
 --------------------------------------------------------------------------------
 ! R1    R(1,2)                  1.0214                                         !
 ! R2    R(1,3)                  1.0214                                         !
 ! A1    A(2,1,3)               97.6083                                         !
 --------------------------------------------------------------------------------
 NAtoms=      3 NQM=        3 NQMF=       0 NMMI=      0 NMMIF=      0
                NMic=       0 NMicF=      0.
                    Isotopes and Nuclear Properties:
 (Nuclear quadrupole moments (NQMom) in fm**2, nuclear magnetic moments (NMagM)
  in nuclear magnetons)

  Atom         1           2           3
 IAtWgt=          16           1           1
 AtmWgt=  15.9949146   1.0078250   1.0078250
 NucSpn=           0           1           1
 AtZEff=    5.600000    1.000000    1.000000
 NQMom=    0.0000000   0.0000000   0.0000000
 NMagM=    0.0000000   2.7928460   2.7928460
 AtZNuc=   8.0000000   1.0000000   1.0000000
 Leave Link  101 at Wed Sep  3 18:23:38 2025, MaxMem= 12348030976 cpu:               0.4 elap:               0.2
 (Enter /home/hhratchian/gaussian/gdv-20250101-j30+/gdv/l202.exe)
                          Input orientation:                          
 ---------------------------------------------------------------------
 Center     Atomic      Atomic             Coordinates (Angstroms)
 Number     Number       Type             X           Y           Z
 ---------------------------------------------------------------------
      1          8           0       -0.000000    0.000000   -0.112312
      2          1           0        0.768591    0.000000    0.560440
      3          1           0       -0.768591   -0.000000    0.560440
 ---------------------------------------------------------------------
                    Distance matrix (angstroms):
                    1          2          3
     1  O    0.000000
     2  H    1.021433   0.000000
     3  H    1.021433   1.537181   0.000000
 Stoichiometry    H2O
 Framework group  C2V[C2(O),SGV(H2)]
 Deg. of freedom     2
 Full point group                 C2V     NOp   4
 RotChk:  IX=0 Diff= 1.10D-15
 Largest Abelian subgroup         C2V     NOp   4
 Largest concise Abelian subgroup C2      NOp   2
                         Standard orientation:                         
 ---------------------------------------------------------------------
 Center     Atomic      Atomic             Coordinates (Angstroms)
 Number     Number       Type             X           Y           Z
 ---------------------------------------------------------------------
      1          8           0        0.000000   -0.000000    0.134550
      2          1           0       -0.000000    0.768591   -0.538201
      3          1           0       -0.000000   -0.768591   -0.538201
 ---------------------------------------------------------------------
 Rotational constants (GHZ):         623.7893652         424.4356424         252.5778703
 Leave Link  202 at Wed Sep  3 18:23:38 2025, MaxMem= 12348030976 cpu:               0.3 elap:               0.0
 (Enter /home/hhratchian/gaussian/gdv-20250101-j30+/gdv/local/l301.exe)
 Basis read from chk: "H2O_CAM-B3LYP_STO-3G_q0_m1_stab.chk" (5D, 7F)
 No pseudopotential information found on chk file.
 There are     4 symmetry adapted cartesian basis functions of A1  symmetry.
 There are     0 symmetry adapted cartesian basis functions of A2  symmetry.
 There are     1 symmetry adapted cartesian basis functions of B1  symmetry.
 There are     2 symmetry adapted cartesian basis functions of B2  symmetry.
 There are     4 symmetry adapted basis functions of A1  symmetry.
 There are     0 symmetry adapted basis functions of A2  symmetry.
 There are     1 symmetry adapted basis functions of B1  symmetry.
 There are     2 symmetry adapted basis functions of B2  symmetry.
     7 basis functions,    21 primitive gaussians,     7 cartesian basis functions
     5 alpha electrons        5 beta electrons
       nuclear repulsion energy         8.6334212907 Hartrees.
 IExCor=   2004019 DFT=T Ex+Corr=CAM-B3LYP ScaHFX=  1.000000
 ScaDFX=  1.000000  1.000000  1.000000  0.810000  1.000000  0.000000
 ScaDFX=  0.000000  0.000000  0.000000  0.000000  0.000000  0.000000
 Grid=SuperFine IRanWt=     -1 IRanGd=            0 ICorTp=0 IEDCtl=  2004
 HFx  wShort=  0.000000 wLong=  0.330000 cFull=  0.190000 cShort=  0.000000 cLong=  0.460000
 DFx  wShort=  0.330000 wLong=  0.000000 cFull=  0.350000 cShort=  0.460000 cLong=  0.000000
 NAtoms=    3 NActive=    3 NUniq=    2 SFac= 2.25D+00 NAtFMM=   60 NAOKFM=F Big=F
 Integral buffers will be    131072 words long.
 Raffenetti 2 integral format.
 Two-electron integral symmetry is turned on.
 No density basis found on file 200724.
 Leave Link  301 at Wed Sep  3 18:23:38 2025, MaxMem= 12348030976 cpu:               0.2 elap:               0.1
 (Enter /home/hhratchian/gaussian/gdv-20250101-j30+/gdv/l302.exe)
 NPDir=0 NMtPBC=     1 NCelOv=     1 NCel=       1 NClECP=     1 NCelD=      1
         NCelK=      1 NCelE2=     1 NClLst=     1 CellRange=     0.0.
 One-electron integrals computed using PRISM.
 One-electron integral symmetry used in STVInt
 NBasis=     7 RedAO= T EigKep=  3.84D-01  NBF=     4     0     1     2
 NBsUse=     7 1.00D-06 EigRej= -1.00D+00 NBFU=     4     0     1     2
 Precomputing XC quadrature grid using
 IXCGrd=   9 Grid=SuperFine IRanWt=          -1 IRanGd=           0 AccXCQ= 0.00D+00.
 Generated NRdTot=       0 NPtTot=      186362 NUsed=           0 NTot=          64
 NSgBfM=     7     7     7     7     7 MxSgAt=     3 MxSgA2=     3 SizInc=   0.000
 NMBTot=     1272 MaxBatPerAtom=      123 MaxMicBPerAtom=      430 NBfPt=             1126896.
 Leave Link  302 at Wed Sep  3 18:23:38 2025, MaxMem= 12348030976 cpu:               2.2 elap:               0.1
 (Enter /home/hhratchian/gaussian/gdv-20250101-j30+/gdv/l303.exe)
 DipDrv:  MaxL=1.
 Leave Link  303 at Wed Sep  3 18:23:38 2025, MaxMem= 12348030976 cpu:               0.2 elap:               0.0
 (Enter /home/hhratchian/gaussian/gdv-20250101-j30+/gdv/l401.exe)
 Initial guess from the checkpoint file:  "H2O_CAM-B3LYP_STO-3G_q0_m1_stab.chk"
 B after Tr=     0.000000   -0.000000    0.000000
         Rot=    1.000000   -0.000000   -0.000000   -0.000000 Ang=   0.00 deg.
 AO Guess basis will be translated and rotated to current coordinates.
 JPrj=2 DoOrth=T DoCkMO=T.
 Initial guess orbital symmetries:
       Occupied  (A1) (A1) (B2) (A1) (B1)
       Virtual   (A1) (B2)
 The electronic state of the initial guess is 1-A1.
 Leave Link  401 at Wed Sep  3 18:23:38 2025, MaxMem= 12348030976 cpu:               0.3 elap:               0.1
 (Enter /home/hhratchian/gaussian/gdv-20250101-j30+/gdv/local/l502.exe)
 Keep R1 ints in memory in symmetry-blocked form, NReq=47924202.
 FoFCou: FMM=F IPFlag=           0 FMFlag=           0 FMFlg1=           0
         NFxFlg=           0 DoJE=F BraDBF=F KetDBF=F FulRan=T
         wScrn=  0.000000 ICntrl=       600 IOpCl=  0 I1Cent=           0 NGrid=           0
         NMat0=    1 NMatS0=     28 NMatT0=    0 NMatD0=    1 NMtDS0=    0 NMtDT0=    0
 Petite list used in FoFCou.
 Closed shell SCF:
 Using DIIS extrapolation, IDIIS=  1040.
 NGot= 12348030976 LenX= 12348027978 LenY= 12348027096
 Requested convergence on RMS density matrix=1.00D-08 within 128 cycles.
 Requested convergence on MAX density matrix=1.00D-06.
 Requested convergence on             energy=1.00D-06.
 No special actions if energy rises.
 
  Hrant - CycOpn.
 

 Cycle   1  Pass 1  IDiag  1:
 E= -75.2885984672211    
 DIIS: error= 9.17D-12 at cycle   1 NSaved=   1.
 NSaved= 1 IEnMin= 1 EnMin= -75.2885984672211     IErMin= 1 ErrMin= 9.17D-12
 ErrMax= 9.17D-12  0.00D+00 EMaxC= 1.00D-01 BMatC= 3.79D-22 BMatP= 3.79D-22
 Rises=F IDIUse=1 WtCom= 1.00D+00 WtEn= 0.00D+00
 Coeff-Com:  0.100D+01
 Coeff:      0.100D+01
 Gap=     0.593 Goal=   None    Shift=    0.000
 Skip diagonalization as Alpha Fock matrix is already diagonal.
 RMSDP=4.16D-31 MaxDP=1.63D-30              OVMax= 0.00D+00

 SCF Done:  E(RCAM-B3LYP) =  -75.2885984672     A.U. after    1 cycles
            NFock=  1  Conv=0.42D-30     -V/T= 2.0109
 KE=          74.474487 PE=        -195.809558 EE=          37.413051
 Leave Link  502 at Wed Sep  3 18:23:38 2025, MaxMem= 12348030976 cpu:               3.4 elap:               0.1
 (Enter /home/hhratchian/gaussian/gdv-20250101-j30+/gdv/l601.exe)
 Copying SCF densities to generalized density rwf, IOpCl= 0 IROHF=0.
 
 **********************************************************************
 
               Population analysis using the SCF Density.
 
 **********************************************************************
 
 Orbital symmetries:
       Occupied  (A1) (A1) (B2) (A1) (B1)
       Virtual   (A1) (B2)
 The electronic state is 1-A1.
 Alpha  occ. eigenvalues --      -18.91924      -0.99093      -0.47221      -0.31879      -0.21557
 Alpha virt. eigenvalues --        0.37763       0.46433
          Condensed to atoms (all electrons):
               1          2          3
     1  O    7.831934   0.237050   0.237050
     2  H    0.237050   0.648362  -0.038429
     3  H    0.237050  -0.038429   0.648362
 Mulliken charges:
               1
     1  O   -0.306034
     2  H    0.153017
     3  H    0.153017
 Sum of Mulliken charges=  -0.00000
 Mulliken charges with hydrogens summed into heavy atoms:
               1
     1  O   -0.000000
 Electronic spatial extent (au):  <R**2>=             18.7012
 Charge=             -0.0000 electrons
 Dipole moment (field-independent basis, Debye):
    X=             -0.0000    Y=              0.0000    Z=             -1.6339  Tot=              1.6339
 Quadrupole moment (field-independent basis, Debye-Ang):
   XX=             -6.1558   YY=             -4.5562   ZZ=             -5.2886
   XY=              0.0000   XZ=              0.0000   YZ=             -0.0000
 Traceless Quadrupole moment (field-independent basis, Debye-Ang):
   XX=             -0.8223   YY=              0.7773   ZZ=              0.0449
   XY=              0.0000   XZ=              0.0000   YZ=             -0.0000
 Octapole moment (field-independent basis, Debye-Ang**2):
  XXX=              0.0000  YYY=             -0.0000  ZZZ=             -0.0987  XYY=             -0.0000
  XXY=              0.0000  XXZ=              0.0481  XZZ=              0.0000  YZZ=              0.0000
  YYZ=             -0.5140  XYZ=             -0.0000
 Hexadecapole moment (field-independent basis, Debye-Ang**3):
 XXXX=             -3.2988 YYYY=             -6.9978 ZZZZ=             -5.5232 XXXY=             -0.0000
 XXXZ=             -0.0000 YYYX=             -0.0000 YYYZ=             -0.0000 ZZZX=             -0.0000
 ZZZY=              0.0000 XXYY=             -1.8573 XXZZ=             -1.5241 YYZZ=             -1.8041
 XXYZ=              0.0000 YYXZ=              0.0000 ZZXY=             -0.0000
 N-N=           8.633421 E-N=        -195.809558  KE=          74.474487
 Symmetry A1   KE=          66.466663
 Symmetry A2   KE=           0.000000
 Symmetry B1   KE=           5.057462
 Symmetry B2   KE=           2.950362
 No NMR shielding tensors so no spin-rotation constants.
 Leave Link  601 at Wed Sep  3 18:23:39 2025, MaxMem= 12348030976 cpu:               2.3 elap:               0.1
 (Enter /home/hhratchian/gaussian/gdv-20250101-j30+/gdv/l801.exe)
 DoSCS=F DFT=T ScalE2(SS,OS)=  1.000000  1.000000
 Range of M.O.s used for correlation:     1     7
 NBasis=     7 NAE=     5 NBE=     5 NFC=     0 NFV=     0
 NROrb=      7 NOA=     5 NOB=     5 NVA=     2 NVB=     2
 Leave Link  801 at Wed Sep  3 18:23:39 2025, MaxMem= 12348030976 cpu:               0.2 elap:               0.0
 (Enter /home/hhratchian/gaussian/gdv-20250101-j30+/gdv/l914.exe)
 RHF ground state
 Doing stability rather than CIS.
 DoSCS=F DFT=T ScalE2(SS,OS)=  1.000000  1.000000
   ScalD2(USS,UOS,TSS,TOS,w)=  1.000000  1.000000  1.000000  1.000000  1.000000
 Keep R1 and R2 ints in memory in symmetry-blocked form, NReq=53731245.
 FoFCou: FMM=F IPFlag=           0 FMFlag=           0 FMFlg1=           0
         NFxFlg=           0 DoJE=F BraDBF=F KetDBF=F FulRan=T
         wScrn=  0.000000 ICntrl=       600 IOpCl=  0 I1Cent=           0 NGrid=           0
         NMat0=    1 NMatS0=     28 NMatT0=    0 NMatD0=    1 NMtDS0=    0 NMtDT0=    0
 Petite list used in FoFCou.
 MDV= 12348030976 DFT=T IDoStb=1 Mixed=T DoRPA=F DoScal=F NonHer=F
 Making orbital integer symmetry assigments:
 Orbital symmetries:
       Occupied  (A1) (A1) (B2) (A1) (B1)
       Virtual   (A1) (B2)
 The electronic state is 1-A1.
    20 initial guesses have been made.
 Convergence on wavefunction:    0.001000000000000
 Davidson Disk Diagonalization:  ConvIn= 1.00D-03 SkipCon=T Conv= 1.00D-03.
 Max sub-space:    48 initial roots:    24 roots to seek:     1 dimension of matrix:           20
 *** WARNING: Number of orthogonal guesses is           20
 Iteration     1 Dimension    20 NMult     0 NNew     20
 CISAX will form    20 AO SS matrices at one time.
 NMat=    20 NSing=    10 JSym2X=-1.
 New state      1 was old state      2
 Excitation Energies [eV] at current iteration:
 Root      1 :     7.803663537279013
 Root      2 :     9.383773123646176
 Root      3 :    10.142960289850350
 Root      4 :    10.655644406948559
 Root      5 :    11.511387925931150
 Root      6 :    12.583352955718210
 Root      7 :    14.896278678267286
 Root      8 :    15.050067006457683
 Root      9 :    15.060479353001986
 Root     10 :    17.503247587697089
 Root     11 :    23.203542079986768
 Root     12 :    27.899709724679433
 Root     13 :    29.280208281160810
 Root     14 :    30.864771060924838
 Root     15 :    37.043085852614688
 Root     16 :    44.416631398065292
 Root     17 :   515.946362188242688
 Root     18 :   518.193019337750911
 Root     19 :   519.059590899744990
 Root     20 :   520.250805972318290
 Convergence achieved for final wavefunctions.
 1PDM for each excited state written to RWF  633
 Ground to excited state transition densities written to RWF  633

 ***********************************************************************
 Stability analysis using <AA,BB:AA,BB> singles matrix:
 ***********************************************************************

 Eigenvectors of the stability matrix:
 
 Eigenvector   1:      Triplet-B1   Eigenvalue= 0.2867794  <S**2>=2.000
       5 ->  6         0.70711
 
 Eigenvector   2:      Triplet-A1   Eigenvalue= 0.3448473  <S**2>=2.000
       3 ->  7         0.24830
       4 ->  6         0.65611
 
 Eigenvector   3:      Triplet-A2   Eigenvalue= 0.3727469  <S**2>=2.000
       5 ->  7         0.70711
 
 Eigenvector   4:      Triplet-B2   Eigenvalue= 0.3915877  <S**2>=2.000
       3 ->  6         0.40579
       4 ->  7         0.57728
 
 Eigenvector   5:      Singlet-B1   Eigenvalue= 0.4230357  <S**2>=0.000
       5 ->  6         0.70711
 
 Eigenvector   6:      Singlet-A2   Eigenvalue= 0.4624297  <S**2>=0.000
       5 ->  7         0.70711
 The wavefunction is stable under the perturbations considered.
 Leave Link  914 at Wed Sep  3 18:23:39 2025, MaxMem= 12348030976 cpu:               5.8 elap:               0.2
 (Enter /home/hhratchian/gaussian/gdv-20250101-j30+/gdv/l508.exe)
 The wavefunction is already stable.
 Leave Link  508 at Wed Sep  3 18:23:39 2025, MaxMem= 12348030976 cpu:               0.1 elap:               0.0
 (Enter /home/hhratchian/gaussian/gdv-20250101-j30+/gdv/l601.exe)
 Copying SCF densities to generalized density rwf, IOpCl= 0 IROHF=0.
 
 **********************************************************************
 
               Population analysis using the SCF Density.
 
 **********************************************************************
 
 Orbital symmetries:
       Occupied  (A1) (A1) (B2) (A1) (B1)
       Virtual   (A1) (B2)
 The electronic state is 1-A1.
 Alpha  occ. eigenvalues --      -18.91924      -0.99093      -0.47221      -0.31879      -0.21557
 Alpha virt. eigenvalues --        0.37763       0.46433
          Condensed to atoms (all electrons):
               1          2          3
     1  O    7.831934   0.237050   0.237050
     2  H    0.237050   0.648362  -0.038429
     3  H    0.237050  -0.038429   0.648362
 Mulliken charges:
               1
     1  O   -0.306034
     2  H    0.153017
     3  H    0.153017
 Sum of Mulliken charges=  -0.00000
 Mulliken charges with hydrogens summed into heavy atoms:
               1
     1  O   -0.000000
 Electronic spatial extent (au):  <R**2>=             18.7012
 Charge=             -0.0000 electrons
 Dipole moment (field-independent basis, Debye):
    X=             -0.0000    Y=              0.0000    Z=             -1.6339  Tot=              1.6339
 Quadrupole moment (field-independent basis, Debye-Ang):
   XX=             -6.1558   YY=             -4.5562   ZZ=             -5.2886
   XY=              0.0000   XZ=              0.0000   YZ=             -0.0000
 Traceless Quadrupole moment (field-independent basis, Debye-Ang):
   XX=             -0.8223   YY=              0.7773   ZZ=              0.0449
   XY=              0.0000   XZ=              0.0000   YZ=             -0.0000
 Octapole moment (field-independent basis, Debye-Ang**2):
  XXX=              0.0000  YYY=             -0.0000  ZZZ=             -0.0987  XYY=             -0.0000
  XXY=              0.0000  XXZ=              0.0481  XZZ=              0.0000  YZZ=              0.0000
  YYZ=             -0.5140  XYZ=             -0.0000
 Hexadecapole moment (field-independent basis, Debye-Ang**3):
 XXXX=             -3.2988 YYYY=             -6.9978 ZZZZ=             -5.5232 XXXY=             -0.0000
 XXXZ=             -0.0000 YYYX=             -0.0000 YYYZ=             -0.0000 ZZZX=             -0.0000
 ZZZY=              0.0000 XXYY=             -1.8573 XXZZ=             -1.5241 YYZZ=             -1.8041
 XXYZ=              0.0000 YYXZ=              0.0000 ZZXY=             -0.0000
 N-N=           8.633421 E-N=        -195.809558  KE=          74.474487
 Symmetry A1   KE=          66.466663
 Symmetry A2   KE=           0.000000
 Symmetry B1   KE=           5.057462
 Symmetry B2   KE=           2.950362
 No NMR shielding tensors so no spin-rotation constants.
 Leave Link  601 at Wed Sep  3 18:23:39 2025, MaxMem= 12348030976 cpu:               2.2 elap:               0.1
 (Enter /home/hhratchian/gaussian/gdv-20250101-j30+/gdv/local/l9999.exe)
 Unable to Open any file for archive entry.
 1\1\GINC-NODE030\Stability\RCAM-B3LYP\Gen\H2O1\AABOUTAKA\03-Sep-2025\0
 \\#p CAM-B3LYP stable=opt guess=read chkbasis geom=allcheck int=superf
 inegrid\\H2O — CAM-B3LYP/STO-3G q=0 m=1 [1/3: Stability]\\0,1\O,0,0.
 ,0.,-0.1123117433\H,0,0.7685906676,0.,0.5604398716\H,0,-0.7685906676,0
 .,0.5604398716\\Version=ES64L-GDVRevJ.30+\State=1-A1\HF=-75.2885985\RM
 SD=4.161e-31\Dipole=0.,0.,0.6428115\Quadrupole=0.5779386,-0.6113362,0.
 0333976,0.,0.,0.\PG=C02V [C2(O1),SGV(H2)]\\@
 The archive entry for this job was punched.


 WE SHOULD BE CAREFUL TO GET OUT OF AN EXPERIENCE ONLY THE WISDOM
 THAT IS IN IT -- AND STOP THERE;
 LEST WE BE LIKE THE CAT THAT SITS DOWN ON A HOT STOVE-LID.
 SHE WILL NEVER SIT DOWN ON A HOT STOVE LID AGAIN;
 BUT ALSO SHE WILL NEVER SIT DOWN ON A COLD ONE ANY MORE.

                                                     -- MARK TWAIN
 Job cpu time:       0 days  0 hours  0 minutes 18.6 seconds.
 Elapsed time:       0 days  0 hours  0 minutes  1.2 seconds.
 File lengths (MBytes):  RWF=     30 Int=      0 D2E=      0 Chk=     74 Scr=      2
 Normal termination of Gaussian DV at Wed Sep  3 18:23:39 2025.
