 Set GAUSS_MDEF to "92GB".
 Set GAUSS_PDEF to "56".
 Entering Gaussian System, Link 0=gdv
 AtFile(1): SDDPlusTZ.gbs
            ! SDDPlusTZ Basis Set + ECP
            !
            !
            ! Last updated/modified by: H. P. Hratchian, August 2017.
            !
            !
            ! This file contains parameters for the SDD+TZ basis set and ECP, given in the
            ! Gaussian input format. This set is often used in the Hratchian Group's metal
            ! oxide cluster work. References to this basis and ECP are:
            !      (1) Waller, S. E.; Mann, J. E.; Rothgeb, D. W.; Jarrold, C. C. J. Phys.
            !          Chem. A 2012, 116 (39), 9639–9652.
            !      (2) Mayhall, N. J.; Rothgeb, D. W.; Hossain, E.; Raghavachari, K.;
            !          Jarrold, C. C. J. Chem. Phys. 2009, 130, 124313− 124323.
            !      (3) Andrae, D.; Haussermann, U.; Dolg, M.; Stoll, H.; Preuss, H. Theor.
            !          Chim. Acta 1990, 77, 123−141.
            !
            -Sc 0
            SDD
            S 1 1.00
             0.003 1.0
            P 1 1.00
             0.0071415 1.0
            D 1 1.00
             0.012 1.0
             F   1 1.00
                  0.180    1.0
             F   1 1.00
                  0.764    1.0
             G   1 1.00
                  0.347    1.0
            ****
            -Ti 0
            SDD
            S 1 1.00
             0.003 1.0
            P 1 1.00
             0.0071352 1.0
            D 1 1.00
             0.015 1.0
             F   1 1.00
                  0.285    1.0
             F   1 1.00
                  1.264    1.0
             G   1 1.00
                  0.636    1.0
            ****
            -V 0
            SDD
            S 1 1.00
             0.003 1.0
            P 1 1.00
             0.0079179 1.0
            D 1 1.00
             0.018 1.0
             F   1 1.00
                  0.425    1.0
             F   1 1.00
                  1.788    1.0
             G   1 1.00
                  1.048    1.0
            ****
            -Cr 0
            SDD
            S 1 1.00
             0.003 1.0
            P 1 1.00
             0.0079935 1.0
            D 1 1.00
             0.021 1.0
             F   1 1.00
                  0.640    1.0
             F   1 1.00
                  2.555    1.0
             G   1 1.00
                  1.712    1.0
            ****
            -Mn 0
            SDD
            S 1 1.00
             0.003 1.0
            P 1 1.00
             0.0084888 1.0
            D 1 1.00
             0.021 1.0
             F   1 1.00
                  0.795    1.0
             F   1 1.00
                  3.118    1.0
             G   1 1.00
                  1.964    1.0
            ****
            -Fe 0
            SDD
            S 1 1.00
             0.003 1.0
            P 1 1.00
             0.0088332 1.0
            D 1 1.00
             0.024 1.0
             F   1 1.00
                  0.871    1.0
             F   1 1.00
                  3.516    1.0
             G   1 1.00
                  2.269    1.0
            ****
            -Co 0
            SDD
            S 1 1.00
             0.003 1.0
            P 1 1.00
             0.0091782 1.0
            D 1 1.00
             0.027 1.0
             F   1 1.00
                  1.019    1.0
             F   1 1.00
                  4.076    1.0
             G   1 1.00
                  2.711    1.0
            ****
            -Ni 0
            SDD
            S 1 1.00
             0.003 1.0
            P 1 1.00
             0.0095352 1.0
            D 1 1.00
             0.027 1.0
             F   1 1.00
                  1.182    1.0
             F   1 1.00
                  4.685    1.0
             G   1 1.00
                  3.212    1.0
            ****
            -Cu 0
            SDD
            S 1 1.00
             0.003 1.0
            P 1 1.00
             0.0092634 1.0
            D 1 1.00
             0.030 1.0
             F   1 1.00
                  1.315    1.0
             F   1 1.00
                  5.208    1.0
             G   1 1.00
                  3.665    1.0
            ****
            -Zn 0
            SDD
            S 1 1.00
             0.003 1.0
            P 1 1.00
             0.0149958 1.0
            D 1 1.00
             0.033 1.0
             F   1 1.00
                  1.498    1.0
             F   1 1.00
                  5.871    1.0
             G   1 1.00
                  4.365    1.0
            ****
            -Y 0
            SDD
            S 1 1.00
             0.003 1.0
            P 1 1.00
             0.0066708 1.0
            D 1 1.00
             0.006 1.0
             F   1 1.00
                  0.144    1.0
             F   1 1.00
                  0.546    1.0
             G   1 1.00
                  0.249    1.0
            ****
            -Zr 0
            SDD
            S 1 1.00
             0.0033 1.0
            P 1 1.00
             0.0067569 1.0
            D 1 1.00
             0.009 1.0
             F   1 1.00
                  0.236    1.0
             F   1 1.00
                  0.883    1.0
             G   1 1.00
                  0.547    1.0
            ****
            -Nb 0
            SDD
            S 1 1.00
             0.0045 1.0
            P 1 1.00
             0.0701512 1.0
            D 1 1.00
             0.011 1.0
             F    1 1.00
                   0.261   1.0
             F    1 1.00
                   0.970   1.0
             G    1 1.00
                   0.536   1.0
            ****
            -Mo 0
            SDD
            S 1 1.00
             0.0045 1.0
            P 1 1.00
             0.0070821 1.0
            D 1 1.00
             0.0129 1.0
             F   1 1.00
                  0.338    1.0
             F   1 1.00
                  1.223    1.0
             G   1 1.00
                  0.744    1.0
            ****
            -Ru 0
            SDD
            S 1 1.00
             0.0048 1.0
            P 1 1.00
             0.0068781 1.0
            D 1 1.00
             0.0153 1.0
             F   1 1.00
                  0.478    1.0
             F   1 1.00
                  1.666    1.0
             G   1 1.00
                  1.057    1.0
            ****
            -Rh 0
            SDD
            S 1 1.00
             0.0048 1.0
            P 1 1.00
             0.007251 1.0
            D 1 1.00
             0.0165 1.0
             F   1 1.00
                  0.567    1.0
             F   1 1.00
                  1.989    1.0
             G   1 1.00
                  1.236    1.0
            ****
            -Pd 0
            SDD
            S 1 1.00
             0.0048 1.0
            P 1 1.00
             0.0074262 1.0
            D 1 1.00
             0.018 1.0
             F   1 1.00
                  0.621    1.0
             F   1 1.00
                  2.203    1.0
             G   1 1.00
                  1.385    1.0
            ****
            -Ag 0
            SDD
            S 1 1.00
             0.0048 1.0
            P 1 1.00
             0.0071169 1.0
            D 1 1.00
             0.0198 1.0
             F   1 1.00
                  0.732    1.0
             F   1 1.00
                  2.537    1.0
             G   1 1.00
                  1.587    1.0
            ****
            -Cd 0
            SDD
            S 1 1.00
             0.0057 1.0
            P 1 1.00
             0.0109932 1.0
            D 1 1.00
             0.0225 1.0
             F   1 1.00
                  0.834    1.0
             F   1 1.00
                  2.853    1.0
             G   1 1.00
                  1.795    1.0
            ****
            -W 0
             SDD
            S 1 1.00
             0.0045 1.0
            P 1 1.00
             0.0081084 1.0
            D 1 1.00
             0.012 1.0
             F   1 1.00
                  0.256    1.0
             F   1 1.00
                  0.825    1.0
             G   1 1.00
                  0.627    1.0
            ****
            -Os 0
            SDD
            S 1 1.00
             0.0045 1.0
            P 1 1.00
             0.0079971 1.0
            D 1 1.00
             0.015 1.0
             F   1 1.00
                  0.347    1.0
             F   1 1.00
                  1.067    1.0
             G   1 1.00
                  0.860    1.0
            ****
            -Ir 0
            SDD
            S 1 1.00
             0.0045 1.0
            P 1 1.00
             0.0082092 1.0
            D 1 1.00
             0.015 1.0
             F   1 1.00
                  0.395    1.0
             F   1 1.00
                  1.189    1.0
             G   1 1.00
                  0.982    1.0
            ****
            -Pt 0
            SDD
            S 1 1.00
             0.0045 1.0
            P 1 1.00
             0.0083406 1.0
            D 1 1.00
             0.015 1.0
             F   1 1.00
                  0.443    1.0
             F   1 1.00
                  1.323    1.0
             G   1 1.00
                  1.100    1.0
            ****
            -Au 0
            SDD
            S 1 1.00
             0.0019245 1.0
            P 1 1.00
             0.0102 1.0
            D 1 1.00
             0.0136536 1.0
             F   1 1.00
                  1.461    1.0
             F   1 1.00
                  0.498    1.0
             G   1 1.00
                  1.218    1.0
            ****
            !
            ! Gd ... HPH Added S, P, D, and F diffuse functions using 0.3 exponent ratio.
            -Gd 0
            SDD
            S 1 1.00
             0.0071100 1.0
            P 1 1.00
             0.0240000 1.0
            D 1 1.00
             0.0311100 1.0
            F 1 1.00
             0.0856500 1.0
            ****
            -H  B  C  N  O  F  P  S  Cl 0
            aug-cc-pVTz
            ****
            
            -Sc  Ti  V  Cr  Mn  Fe  Co  Ni  Cu  Zn  Y  Zr  Nb  Mo  Ru  Rh  Pd  Ag  Cd  W  Os  Ir  Pt  Au  Gd  0
            SDD
 Initial command:
 /home/hhratchian/gaussian/gdv-20250101-j30+/gdv/local/l1.exe "/scratch/aaboutaka/1590300/Gau-3235675.inp" -scrdir="/scratch/aaboutaka/1590300/"
 Default is to use a total of  56 processors:
                               56 via shared-memory
                                1 via Linda
 Entering Link 1 = /home/hhratchian/gaussian/gdv-20250101-j30+/gdv/local/l1.exe PID=   3235676.
  
 Copyright (c) 1988-2024, Gaussian, Inc.  All Rights Reserved.
  
 This is the private, development version of
 the Gaussian(R) DV system of programs. It is based on
 the Gaussian(R) 16 system (copyright 2016, Gaussian, Inc.),
 the Gaussian(R) 09 system (copyright 2009, Gaussian, Inc.),
 the Gaussian(R) 03 system (copyright 2003, Gaussian, Inc.),
 the Gaussian(R) 98 system (copyright 1998, Gaussian, Inc.),
 the Gaussian(R) 94 system (copyright 1995, Gaussian, Inc.),
 the Gaussian 92(TM) system (copyright 1992, Gaussian, Inc.),
 the Gaussian 90(TM) system (copyright 1990, Gaussian, Inc.),
 the Gaussian 88(TM) system (copyright 1988, Gaussian, Inc.),
 the Gaussian 86(TM) system (copyright 1986, Carnegie Mellon
 University), and the Gaussian 82(TM) system (copyright 1983,
 Carnegie Mellon University). Gaussian is a federally registered
 trademark of Gaussian, Inc.
  
 This software contains proprietary and confidential information,
 including trade secrets, belonging to Gaussian, Inc.
  
 This software is provided under written license and may be
 used, copied, transmitted, or stored only in accord with that
 written license.
  
 The following legend is applicable only to US Government
 contracts under FAR:
  
                    RESTRICTED RIGHTS LEGEND
  
 Use, reproduction and disclosure by the US Government is
 subject to restrictions as set forth in subparagraphs (a)
 and (c) of the Commercial Computer Software - Restricted
 Rights clause in FAR 52.227-19.
  
 Gaussian, Inc.
 340 Quinnipiac St., Bldg. 40, Wallingford CT 06492
  
  
 ---------------------------------------------------------------
 Warning -- This program may not be used in any manner that
 competes with the business of Gaussian, Inc. or will provide
 assistance to any competitor of Gaussian, Inc.  The licensee
 of this program is prohibited from giving any competitor of
 Gaussian, Inc. access to this program.  By using this program,
 the user acknowledges that Gaussian, Inc. is engaged in the
 business of creating and licensing software in the field of
 computational chemistry and represents and warrants to the
 licensee that it is not a competitor of Gaussian, Inc. and that
 it will not use this program in any manner prohibited above.
 ---------------------------------------------------------------
  

 Cite this work as:
 Gaussian Development Version, Revision J.30+,
 M. J. Frisch, G. W. Trucks, G. Scalmani, J. R. Cheeseman, X. Li, 
 J. Bloino, B. G. Janesko, A. V. Marenich, J. Zheng, F. Lipparini, 
 A. Jenkins, A. Liu, H. Liu, H. B. Schlegel, G. E. Scuseria, 
 M. A. Robb, V. Barone, G. A. Petersson, H. Nakatsuji, B. Mennucci, 
 C. Adamo, N. Rega, M. Caricato, H. P. Hratchian, J. V. Ortiz, 
 F. Pawlowski, A. F. Izmaylov, H. Hu, C. Liao, J. L. Sonnenberg, 
 D. Williams-Young, F. Ding, R. Gomperts, F. Egidi, J. Goings, 
 B. Peng, A. Petrone, T. Henderson, D. Ranasinghe, V. G. Zakrzewski, 
 J. Gao, G. Zheng, W. Liang, M. Hada, M. Ehara, K. Toyota, R. Fukuda, 
 J. Hasegawa, M. Ishida, T. Nakajima, Y. Honda, O. Kitao, H. Nakai, 
 T. Vreven, K. Throssell, J. A. Montgomery, Jr., J. E. Peralta, 
 F. Ogliaro, M. J. Bearpark, J. J. Heyd, E. N. Brothers, K. N. Kudin, 
 V. N. Staroverov, T. A. Keith, R. Kobayashi, J. Normand, 
 K. Raghavachari, A. P. Rendell, J. C. Burant, S. S. Iyengar, 
 M. Cossi, J. M. Millam, M. Klene, R. Cammi, R. L. Martin, O. Farkas, 
 J. B. Foresman, and D. J. Fox, Gaussian, Inc., Wallingford CT, 2024.
 
 *******************************************
 Gaussian DV:  ES64L-GDVRevJ.30+ 18-Dec-2024
                  3-Sep-2025 
 *******************************************
 %chk=H2O_B3LYP_genecp_q0_m1.chk
 -------------------------------------------------
 #p B3LYP/genecp stable=opt scf=novaracc guess=mix
 -------------------------------------------------
 1/37=210000000,38=1,172=1/1;
 2/12=2/2;
 3/5=7,11=2,16=1,17=8,25=1,30=1,74=-5/1,2,3;
 4/13=-1/1;
 5/5=2,38=1/2;
 6/7=2,8=2,9=2,10=2,28=1/1;
 8/6=1,10=90,11=11/1;
 9/8=-3,42=1,46=1/14;
 5/5=2,8=3,17=40,38=1/8(-2);
 6/7=2,8=2,9=2,10=2,28=1/1;
 99/5=1,9=1/99;
 Leave Link    1 at Wed Sep  3 17:08:27 2025, MaxMem=           0 cpu:               1.4 elap:               0.1
 (Enter /home/hhratchian/gaussian/gdv-20250101-j30+/gdv/local/l101.exe)
 
  Hrant - IAPOps =                         0
  Hrant - IAPOp1 =                         0
  Hrant - IAPOp2 =                         0
  Hrant - DoAP   =   F
 
 ---------------------------------------------
 H2O — B3LYP/genecp q=0 m=1 [1/3: Stability]
 ---------------------------------------------
 Symbolic Z-matrix:
 Charge =     0 Multiplicity =     1
 O                     0.        0.        0. 
 H                     0.7586    0.        0.50428 
 H                    -0.7586    0.        0.50428 
 
 ITRead=  0  0  0
 MicOpt= -1 -1 -1
 NAtoms=      3 NQM=        3 NQMF=       0 NMMI=      0 NMMIF=      0
                NMic=       0 NMicF=      0.
                    Isotopes and Nuclear Properties:
 (Nuclear quadrupole moments (NQMom) in fm**2, nuclear magnetic moments (NMagM)
  in nuclear magnetons)

  Atom         1           2           3
 IAtWgt=          16           1           1
 AtmWgt=  15.9949146   1.0078250   1.0078250
 NucSpn=           0           1           1
 AtZEff=   -0.000000   -0.000000   -0.000000
 NQMom=    0.0000000   0.0000000   0.0000000
 NMagM=    0.0000000   2.7928460   2.7928460
 AtZNuc=   8.0000000   1.0000000   1.0000000
 Leave Link  101 at Wed Sep  3 17:08:27 2025, MaxMem= 12348030976 cpu:               1.4 elap:               0.1
 (Enter /home/hhratchian/gaussian/gdv-20250101-j30+/gdv/l202.exe)
                          Input orientation:                          
 ---------------------------------------------------------------------
 Center     Atomic      Atomic             Coordinates (Angstroms)
 Number     Number       Type             X           Y           Z
 ---------------------------------------------------------------------
      1          8           0        0.000000    0.000000    0.000000
      2          1           0        0.758602    0.000000    0.504284
      3          1           0       -0.758602   -0.000000    0.504284
 ---------------------------------------------------------------------
                    Distance matrix (angstroms):
                    1          2          3
     1  O    0.000000
     2  H    0.910922   0.000000
     3  H    0.910922   1.517204   0.000000
 Stoichiometry    H2O
 Framework group  C2V[C2(O),SGV(H2)]
 Deg. of freedom     2
 Full point group                 C2V     NOp   4
 Largest Abelian subgroup         C2V     NOp   4
 Largest concise Abelian subgroup C2      NOp   2
                         Standard orientation:                         
 ---------------------------------------------------------------------
 Center     Atomic      Atomic             Coordinates (Angstroms)
 Number     Number       Type             X           Y           Z
 ---------------------------------------------------------------------
      1          8           0        0.000000    0.000000    0.100857
      2          1           0        0.000000    0.758602   -0.403427
      3          1           0       -0.000000   -0.758602   -0.403427
 ---------------------------------------------------------------------
 Rotational constants (GHZ):        1110.1894251         435.6864908         312.8935057
 Leave Link  202 at Wed Sep  3 17:08:27 2025, MaxMem= 12348030976 cpu:               0.7 elap:               0.0
 (Enter /home/hhratchian/gaussian/gdv-20250101-j30+/gdv/local/l301.exe)
 General  basis read from cards:  (5D, 7F)
 Centers:       1      2      3
 aug-cc-pVTz
 ****
 ======================================================================================================
                                       Pseudopotential Parameters
 ======================================================================================================
  Center     Atomic      Valence      Angular      Power
  Number     Number     Electrons     Momentum     of R      Exponent        Coefficient   SO-Coeffient
 ======================================================================================================
    1          8
                                   No pseudopotential on this center.
    2          1
                                   No pseudopotential on this center.
    3          1
                                   No pseudopotential on this center.
 ======================================================================================================
 Ernie: Thresh=  0.10000D-02 Tol=  0.10000D-05 Strict=F.
 Ernie:  3 primitive shells out of 52 were deleted.
 There are    42 symmetry adapted cartesian basis functions of A1  symmetry.
 There are    12 symmetry adapted cartesian basis functions of A2  symmetry.
 There are    20 symmetry adapted cartesian basis functions of B1  symmetry.
 There are    31 symmetry adapted cartesian basis functions of B2  symmetry.
 There are    35 symmetry adapted basis functions of A1  symmetry.
 There are    12 symmetry adapted basis functions of A2  symmetry.
 There are    18 symmetry adapted basis functions of B1  symmetry.
 There are    27 symmetry adapted basis functions of B2  symmetry.
    92 basis functions,   126 primitive gaussians,   105 cartesian basis functions
     5 alpha electrons        5 beta electrons
       nuclear repulsion energy         9.6435792538 Hartrees.
 IExCor=      4002 DFT=T Ex+Corr=B3LYP ScaHFX=  0.200000
 ScaDFX=  0.800000  0.720000  1.000000  0.810000  1.000000  0.000000
 ScaDFX=  0.000000  0.000000  0.000000  0.000000  0.000000  0.000000
 Grid=UltraFine IRanWt=     -1 IRanGd=            0 ICorTp=0 IEDCtl=  2004
 NAtoms=    3 NActive=    3 NUniq=    2 SFac= 2.25D+00 NAtFMM=   60 NAOKFM=F Big=F
 Integral buffers will be    131072 words long.
 Raffenetti 2 integral format.
 Two-electron integral symmetry is turned on.
 Leave Link  301 at Wed Sep  3 17:08:27 2025, MaxMem= 12348030976 cpu:               0.2 elap:               0.1
 (Enter /home/hhratchian/gaussian/gdv-20250101-j30+/gdv/l302.exe)
 NPDir=0 NMtPBC=     1 NCelOv=     1 NCel=       1 NClECP=     1 NCelD=      1
         NCelK=      1 NCelE2=     1 NClLst=     1 CellRange=     0.0.
 One-electron integrals computed using PRISM.
 One-electron integral symmetry used in STVInt
   4 Symmetry operations used in ECPInt.
 ECPInt:  NShTT=     528 NPrTT=    1270 LenC2=     529 LenP2D=    1253.
 LDataN:  DoStor=T MaxTD1= 6 Len=  172
 NBasis=    92 RedAO= T EigKep=  3.31D-04  NBF=    35    12    18    27
 NBsUse=    92 1.00D-06 EigRej= -1.00D+00 NBFU=    35    12    18    27
 Precomputing XC quadrature grid using
 IXCGrd=   9 Grid=UltraFine IRanWt=          -1 IRanGd=           0 AccXCQ= 0.00D+00.
 Generated NRdTot=       0 NPtTot=       73544 NUsed=           0 NTot=          64
 NSgBfM=   105   105   105   105   105 MxSgAt=     3 MxSgA2=     3 SizInc=   0.000
 NMBTot=      974 MaxBatPerAtom=       87 MaxMicBPerAtom=      338 NBfPt=             6212400.
 Leave Link  302 at Wed Sep  3 17:08:27 2025, MaxMem= 12348030976 cpu:               4.1 elap:               0.1
 (Enter /home/hhratchian/gaussian/gdv-20250101-j30+/gdv/l303.exe)
 DipDrv:  MaxL=1.
 Leave Link  303 at Wed Sep  3 17:08:27 2025, MaxMem= 12348030976 cpu:               1.3 elap:               0.1
 (Enter /home/hhratchian/gaussian/gdv-20250101-j30+/gdv/l401.exe)
 ExpMin= 2.53D-02 ExpMax= 1.53D+04 ExpMxC= 5.22D+02 IAcc=3 Grid=UltraFine AccDes= 0.00D+00
 Harris functional with IExCor= 4002 and Grid=UltraFine diagonalized for initial guess.
 HarFok:  IExCor=    4002 AccDes= 0.00D+00 Grid=UltraFine IDoV= 1 UseB2=F ITyADJ=14 ICtDFT=  3500011
 FoFCou: FMM=F IPFlag=           0 FMFlag=      100000 FMFlg1=           0
         NFxFlg=           0 DoJE=T BraDBF=F KetDBF=T FulRan=T
         wScrn=  0.000000 ICntrl=       500 IOpCl=  0 I1Cent=   200000004 NGrid=           0
         NMat0=    1 NMatS0=      1 NMatT0=    0 NMatD0=    1 NMtDS0=    0 NMtDT0=    0
 Petite list used in FoFCou.
 Harris En= -76.4992385818353    
 JPrj=0 DoOrth=F DoCkMO=T.
 Mixing orbitals, IMix= 1 IMixAn=  0 NRI=1 NE=    5 Coef=  7.07106781D-01  7.07106781D-01
 Initial guess orbital symmetries:
       Occupied  (A1) (A1) (B2) (A1) (?A)
       Virtual   (?A) (B2) (A1) (B1) (A1) (B2) (B2) (A1) (A2) (A1)
                 (B1) (B2) (A1) (B2) (B2) (A1) (A1) (B1) (A2) (A1)
                 (A1) (B1) (B1) (B2) (A2) (B2) (A1) (B2) (A1) (B1)
                 (B2) (A1) (A2) (B2) (A2) (A1) (B1) (A1) (B2) (B2)
                 (A1) (B1) (A1) (A2) (A1) (B2) (B1) (A1) (B1) (B2)
                 (A1) (A2) (B2) (B2) (A1) (B1) (A2) (B2) (A1) (B1)
                 (A2) (A1) (B2) (B1) (A1) (B2) (B2) (A2) (A1) (B2)
                 (B1) (A1) (A1) (B2) (B1) (A1) (B1) (A1) (A2) (B1)
                 (A2) (B2) (A1) (B2) (A1) (B2) (A1)
 Leave Link  401 at Wed Sep  3 17:08:28 2025, MaxMem= 12348030976 cpu:               8.0 elap:               0.2
 (Enter /home/hhratchian/gaussian/gdv-20250101-j30+/gdv/local/l502.exe)
 Keep R1 ints in memory in symmetry-blocked form, NReq=61352984.
 FoFCou: FMM=F IPFlag=           0 FMFlag=           0 FMFlg1=           0
         NFxFlg=           0 DoJE=F BraDBF=F KetDBF=F FulRan=T
         wScrn=  0.000000 ICntrl=       600 IOpCl=  0 I1Cent=           0 NGrid=           0
         NMat0=    1 NMatS0=   4278 NMatT0=    0 NMatD0=    1 NMtDS0=    0 NMtDT0=    0
 Petite list used in FoFCou.
 Closed shell SCF:
 Using DIIS extrapolation, IDIIS=  1040.
 NGot= 12348030976 LenX= 12345655041 LenY= 12345643575
 Requested convergence on RMS density matrix=1.00D-08 within 128 cycles.
 Requested convergence on MAX density matrix=1.00D-06.
 Requested convergence on             energy=1.00D-06.
 No special actions if energy rises.
 An orbital has undefined symmetry, so N**3 symmetry is turned off.
 
  Hrant - CycOpn.
 

 Cycle   1  Pass 1  IDiag  1:
 Density matrix breaks symmetry, PCut= 1.00D-04
 Density matrix has no symmetry -- integrals replicated.
 E= -76.1192070732107    
 DIIS: error= 5.68D-02 at cycle   1 NSaved=   1.
 NSaved= 1 IEnMin= 1 EnMin= -76.1192070732107     IErMin= 1 ErrMin= 5.68D-02
 ErrMax= 5.68D-02  0.00D+00 EMaxC= 1.00D-01 BMatC= 2.57D-02 BMatP= 2.57D-02
 Rises=F IDIUse=3 WtCom= 4.32D-01 WtEn= 5.68D-01
 Coeff-Com:  0.100D+01
 Coeff-En:   0.100D+01
 Coeff:      0.100D+01
 Gap=     0.040 Goal=   None    Shift=    0.000
 GapD=    0.040 DampG=0.250 DampE=0.500 DampFc=0.2500 IDamp=-1.
 Damping current iteration by 2.50D-01
 RMSDP=5.70D-03 MaxDP=1.14D-01              OVMax= 6.70D-01

 Cycle   2  Pass 1  IDiag  1:
 Density matrix breaks symmetry, PCut= 1.00D-04
 Density matrix has no symmetry -- integrals replicated.
 E= -76.2069282163086     Delta-E=       -0.087721143098 Rises=F Damp=T AM=F Ri=F Fa=F
 DIIS: error= 3.96D-02 at cycle   2 NSaved=   2.
 NSaved= 2 IEnMin= 2 EnMin= -76.2069282163086     IErMin= 2 ErrMin= 3.96D-02
 ErrMax= 3.96D-02  0.00D+00 EMaxC= 1.00D-01 BMatC= 1.42D-02 BMatP= 2.57D-02
 Rises=F IDIUse=3 WtCom= 6.04D-01 WtEn= 3.96D-01
 Coeff-Com: -0.438D+00 0.144D+01
 Coeff-En:   0.000D+00 0.100D+01
 Coeff:     -0.265D+00 0.126D+01
 Gap=     0.329 Goal=   None    Shift=    0.000
 RMSDP=4.31D-03 MaxDP=6.29D-02 DE=-8.77D-02 OVMax= 5.95D-02

 Cycle   3  Pass 1  IDiag  1:
 Density matrix breaks symmetry, PCut= 1.00D-04
 Density matrix has no symmetry -- integrals replicated.
 E= -76.4514166122087     Delta-E=       -0.244488395900 Rises=F Damp=F AM=F Ri=F Fa=F
 DIIS: error= 1.54D-02 at cycle   3 NSaved=   3.
 NSaved= 3 IEnMin= 3 EnMin= -76.4514166122087     IErMin= 3 ErrMin= 1.54D-02
 ErrMax= 1.54D-02  0.00D+00 EMaxC= 1.00D-01 BMatC= 4.17D-03 BMatP= 1.42D-02
 Rises=F IDIUse=3 WtCom= 8.46D-01 WtEn= 1.54D-01
 Coeff-Com:  0.539D+00-0.635D+00 0.110D+01
 Coeff-En:   0.000D+00 0.000D+00 0.100D+01
 Coeff:      0.456D+00-0.537D+00 0.108D+01
 Gap=     0.288 Goal=   None    Shift=    0.000
 RMSDP=9.58D-04 MaxDP=1.77D-02 DE=-2.44D-01 OVMax= 5.42D-02

 Cycle   4  Pass 1  IDiag  1:
 Density matrix breaks symmetry, PCut= 1.00D-04
 Density matrix has no symmetry -- integrals replicated.
 E= -76.4579191942908     Delta-E=       -0.006502582082 Rises=F Damp=F AM=F Ri=F Fa=F
 DIIS: error= 1.08D-02 at cycle   4 NSaved=   4.
 NSaved= 4 IEnMin= 4 EnMin= -76.4579191942908     IErMin= 4 ErrMin= 1.08D-02
 ErrMax= 1.08D-02  0.00D+00 EMaxC= 1.00D-01 BMatC= 1.67D-03 BMatP= 4.17D-03
 Rises=F IDIUse=3 WtCom= 8.92D-01 WtEn= 1.08D-01
 Coeff-Com: -0.271D+00 0.433D+00 0.952D-01 0.742D+00
 Coeff-En:   0.000D+00 0.000D+00 0.109D+00 0.891D+00
 Coeff:     -0.241D+00 0.386D+00 0.966D-01 0.759D+00
 Gap=     0.311 Goal=   None    Shift=    0.000
 RMSDP=3.71D-04 MaxDP=6.92D-03 DE=-6.50D-03 OVMax= 2.08D-02

 Cycle   5  Pass 1  IDiag  1:
 Density matrix breaks symmetry, PCut= 1.00D-04
 Density matrix has no symmetry -- integrals replicated.
 E= -76.4597837512027     Delta-E=       -0.001864556912 Rises=F Damp=F AM=F Ri=F Fa=F
 DIIS: error= 3.30D-03 at cycle   5 NSaved=   5.
 NSaved= 5 IEnMin= 5 EnMin= -76.4597837512027     IErMin= 5 ErrMin= 3.30D-03
 ErrMax= 3.30D-03  0.00D+00 EMaxC= 1.00D-01 BMatC= 2.23D-04 BMatP= 1.67D-03
 Rises=F IDIUse=3 WtCom= 9.81D-01 WtEn= 1.90D-02
 Coeff-Com:  0.184D-02-0.117D-01-0.591D-01 0.219D+00 0.850D+00
 Coeff-En:   0.000D+00 0.000D+00 0.000D+00 0.119D+00 0.881D+00
 Coeff:      0.180D-02-0.115D-01-0.580D-01 0.217D+00 0.851D+00
 Gap=     0.306 Goal=   None    Shift=    0.000
 RMSDP=1.37D-04 MaxDP=2.13D-03 DE=-1.86D-03 OVMax= 8.01D-03

 Cycle   6  Pass 1  IDiag  1:
 Density matrix breaks symmetry, PCut= 1.00D-04
 Density matrix has no symmetry -- integrals replicated.
 E= -76.4601147193044     Delta-E=       -0.000330968102 Rises=F Damp=F AM=F Ri=F Fa=F
 DIIS: error= 4.10D-04 at cycle   6 NSaved=   6.
 NSaved= 6 IEnMin= 6 EnMin= -76.4601147193044     IErMin= 6 ErrMin= 4.10D-04
 ErrMax= 4.10D-04  0.00D+00 EMaxC= 1.00D-01 BMatC= 3.32D-06 BMatP= 2.23D-04
 Rises=F IDIUse=3 WtCom= 9.99D-01 WtEn= 8.31D-04
 Coeff-Com: -0.120D-02 0.947D-03-0.822D-02 0.738D-02 0.146D+00 0.855D+00
 Coeff-En:   0.000D+00 0.000D+00 0.000D+00 0.000D+00 0.000D+00 0.100D+01
 Coeff:     -0.120D-02 0.946D-03-0.821D-02 0.737D-02 0.146D+00 0.855D+00
 Gap=     0.307 Goal=   None    Shift=    0.000
 RMSDP=1.48D-05 MaxDP=2.92D-04 DE=-3.31D-04 OVMax= 8.30D-04

 Cycle   7  Pass 1  IDiag  1:
 E= -76.4599922510171     Delta-E=        0.000122468287 Rises=F Damp=F AM=T Ri=T Fa=F
 DIIS: error= 2.87D-05 at cycle   7 NSaved=   7.
 NSaved= 7 IEnMin= 6 EnMin= -76.4601147193044     IErMin= 7 ErrMin= 2.87D-05
 ErrMax= 2.87D-05  0.00D+00 EMaxC= 1.00D-01 BMatC= 1.79D-08 BMatP= 3.32D-06
 Rises=T IDIUse=3 WtCom= 1.00D+00 WtEn= 0.00D+00
 EnCoef: bad coef for last F iteration:  0.000D+00 0.000D+00 0.000D+00 0.000D+00 0.000D+00 0.100D+01 0.000D+00
 Coeff-Com:  0.151D-03-0.283D-03 0.490D-03-0.733D-03-0.256D-02 0.641D-01
 Coeff-Com:  0.939D+00
 Coeff-En:   0.000D+00 0.000D+00 0.000D+00 0.000D+00 0.000D+00 0.000D+00
 Coeff-En:   0.100D+01
 Coeff:      0.151D-03-0.283D-03 0.490D-03-0.733D-03-0.256D-02 0.641D-01
 Coeff:      0.939D+00
 Gap=     0.307 Goal=   None    Shift=    0.000
 RMSDP=1.56D-06 MaxDP=3.36D-05 DE= 1.22D-04 OVMax= 1.19D-04

 Cycle   8  Pass 1  IDiag  1:
 E= -76.4601078970332     Delta-E=       -0.000115646016 Rises=F Damp=F AM=T Ri=T Fa=T
 DIIS: error= 3.90D-06 at cycle   8 NSaved=   8.
 NSaved= 8 IEnMin= 6 EnMin= -76.4601147193044     IErMin= 8 ErrMin= 3.90D-06
 ErrMax= 3.90D-06  0.00D+00 EMaxC= 1.00D-01 BMatC= 3.38D-10 BMatP= 1.79D-08
 Rises=T IDIUse=3 WtCom= 1.00D+00 WtEn= 0.00D+00
 Coeff-Com:  0.255D-04-0.591D-04 0.822D-04 0.539D-03-0.378D-04-0.336D-02
 Coeff-Com:  0.188D+00 0.815D+00
 Coeff-En:   0.000D+00 0.000D+00 0.000D+00 0.000D+00 0.000D+00 0.000D+00
 Coeff-En:   0.000D+00 0.100D+01
 Coeff:      0.255D-04-0.591D-04 0.822D-04 0.539D-03-0.378D-04-0.336D-02
 Coeff:      0.188D+00 0.815D+00
 Gap=     0.307 Goal=   None    Shift=    0.000
 RMSDP=1.46D-07 MaxDP=2.42D-06 DE=-1.16D-04 OVMax= 8.18D-06

 Cycle   9  Pass 1  IDiag  1:
 E= -76.4601204511086     Delta-E=       -0.000012554075 Rises=F Damp=F AM=F Ri=F Fa=F
 DIIS: error= 1.22D-06 at cycle   9 NSaved=   9.
 NSaved= 9 IEnMin= 9 EnMin= -76.4601204511086     IErMin= 9 ErrMin= 1.22D-06
 ErrMax= 1.22D-06  0.00D+00 EMaxC= 1.00D-01 BMatC= 2.53D-11 BMatP= 3.38D-10
 Rises=F IDIUse=1 WtCom= 1.00D+00 WtEn= 0.00D+00
 Coeff-Com:  0.425D-05-0.917D-06 0.399D-04-0.172D-03-0.273D-03-0.246D-02
 Coeff-Com: -0.409D-01-0.108D+00 0.115D+01
 Coeff:      0.425D-05-0.917D-06 0.399D-04-0.172D-03-0.273D-03-0.246D-02
 Coeff:     -0.409D-01-0.108D+00 0.115D+01
 Gap=     0.307 Goal=   None    Shift=    0.000
 RMSDP=5.12D-08 MaxDP=1.41D-06 DE=-1.26D-05 OVMax= 3.97D-06

 Cycle  10  Pass 1  IDiag  1:
 E= -76.4601196435705     Delta-E=        0.000000807538 Rises=F Damp=F AM=F Ri=F Fa=F
 DIIS: error= 2.52D-07 at cycle  10 NSaved=  10.
 NSaved=10 IEnMin= 9 EnMin= -76.4601204511086     IErMin=10 ErrMin= 2.52D-07
 ErrMax= 2.52D-07  0.00D+00 EMaxC= 1.00D-01 BMatC= 1.19D-12 BMatP= 2.53D-11
 Rises=F IDIUse=1 WtCom= 1.00D+00 WtEn= 0.00D+00
 Coeff-Com:  0.104D-05-0.157D-05 0.134D-05-0.125D-05-0.136D-04-0.313D-04
 Coeff-Com:  0.166D-02 0.444D-02 0.183D+00 0.811D+00
 Coeff:      0.104D-05-0.157D-05 0.134D-05-0.125D-05-0.136D-04-0.313D-04
 Coeff:      0.166D-02 0.444D-02 0.183D+00 0.811D+00
 Gap=     0.307 Goal=   None    Shift=    0.000
 RMSDP=9.17D-09 MaxDP=2.22D-07 DE= 8.08D-07 OVMax= 6.01D-07

 Cycle  11  Pass 1  IDiag  1:
 E= -76.4601198526137     Delta-E=       -0.000000209043 Rises=F Damp=F AM=F Ri=F Fa=F
 DIIS: error= 6.74D-09 at cycle  11 NSaved=  11.
 NSaved=11 IEnMin= 9 EnMin= -76.4601204511086     IErMin=11 ErrMin= 6.74D-09
 ErrMax= 6.74D-09  0.00D+00 EMaxC= 1.00D-01 BMatC= 5.80D-16 BMatP= 1.19D-12
 Rises=F IDIUse=1 WtCom= 1.00D+00 WtEn= 0.00D+00
 Coeff-Com:  0.816D-07-0.118D-06-0.730D-07-0.411D-06-0.759D-06 0.165D-04
 Coeff-Com: -0.146D-03-0.167D-02-0.858D-02-0.290D-02 0.101D+01
 Coeff:      0.816D-07-0.118D-06-0.730D-07-0.411D-06-0.759D-06 0.165D-04
 Coeff:     -0.146D-03-0.167D-02-0.858D-02-0.290D-02 0.101D+01
 Gap=     0.307 Goal=   None    Shift=    0.000
 RMSDP=4.36D-10 MaxDP=9.79D-09 DE=-2.09D-07 OVMax= 3.49D-08

 SCF Done:  E(RB3LYP) =  -76.4601198526     A.U. after   11 cycles
            NFock= 11  Conv=0.44D-09     -V/T= 2.0033
 KE=          76.209428 PE=        -200.050439 EE=          37.737312
 Leave Link  502 at Wed Sep  3 17:08:28 2025, MaxMem= 12348030976 cpu:              21.3 elap:               0.5
 (Enter /home/hhratchian/gaussian/gdv-20250101-j30+/gdv/l601.exe)
 Copying SCF densities to generalized density rwf, IOpCl= 0 IROHF=0.
 
 **********************************************************************
 
               Population analysis using the SCF Density.
 
 **********************************************************************
 
 Orbital symmetries:
       Occupied  (A1) (A1) (B2) (A1) (B1)
       Virtual   (A1) (B2) (A1) (B1) (A1) (B2) (B2) (A1) (A2) (B1)
                 (A1) (B2) (A1) (B2) (B2) (A1) (A1) (B1) (A2) (A1)
                 (B1) (A1) (B1) (B2) (A2) (B2) (A1) (A1) (B2) (B1)
                 (B2) (A1) (A2) (B2) (A2) (A1) (B1) (A1) (B2) (B2)
                 (A1) (B1) (A1) (A2) (A1) (B1) (B2) (A1) (B2) (B1)
                 (A1) (A2) (B2) (B2) (A1) (B1) (A2) (B2) (A1) (B1)
                 (A2) (A1) (B1) (B2) (A1) (B2) (B2) (A2) (B2) (A1)
                 (B1) (A1) (A1) (B2) (B1) (A1) (B1) (A1) (A2) (B1)
                 (A2) (B2) (A1) (B2) (A1) (B2) (A1)
 The electronic state is 1-A1.
 Alpha  occ. eigenvalues --      -19.12950      -1.03886      -0.57559      -0.38971      -0.32715
 Alpha virt. eigenvalues --       -0.02046       0.02041       0.07898       0.09335       0.10332
 Alpha virt. eigenvalues --        0.11993       0.15786       0.17088       0.19077       0.23089
 Alpha virt. eigenvalues --        0.23372       0.30827       0.34257       0.36380       0.47602
 Alpha virt. eigenvalues --        0.51556       0.57390       0.58428       0.58653       0.69604
 Alpha virt. eigenvalues --        0.71477       0.72342       0.76779       0.77570       0.78785
 Alpha virt. eigenvalues --        0.80563       0.84239       0.89602       0.90328       0.92543
 Alpha virt. eigenvalues --        0.99941       1.04517       1.04911       1.09250       1.34619
 Alpha virt. eigenvalues --        1.38410       1.43548       1.54838       1.58999       1.82952
 Alpha virt. eigenvalues --        1.89712       1.98844       2.04890       2.06993       2.13719
 Alpha virt. eigenvalues --        2.15673       2.16106       2.20405       2.41628       2.42440
 Alpha virt. eigenvalues --        2.53996       2.63203       2.65655       3.37676       3.51145
 Alpha virt. eigenvalues --        3.72693       3.73797       3.96791       3.98866       4.05968
 Alpha virt. eigenvalues --        4.09914       4.13754       4.15650       4.16006       4.32580
 Alpha virt. eigenvalues --        4.48273       4.88675       4.95707       5.09687       5.10193
 Alpha virt. eigenvalues --        5.22554       5.41638       5.77895       6.07018       6.25393
 Alpha virt. eigenvalues --        6.42943       6.62410       6.73064       6.80413       6.89268
 Alpha virt. eigenvalues --        6.97336       7.11447       7.23097       7.54677       7.64140
 Alpha virt. eigenvalues --        8.43989      16.65659
          Condensed to atoms (all electrons):
               1          2          3
     1  O    7.663520   0.289645   0.289645
     2  H    0.289645   0.621944  -0.032993
     3  H    0.289645  -0.032993   0.621944
 Mulliken charges:
               1
     1  O   -0.242809
     2  H    0.121405
     3  H    0.121405
 Sum of Mulliken charges=  -0.00000
 Mulliken charges with hydrogens summed into heavy atoms:
               1
     1  O   -0.000000
 Electronic spatial extent (au):  <R**2>=             19.4256
 Charge=             -0.0000 electrons
 Dipole moment (field-independent basis, Debye):
    X=             -0.0000    Y=             -0.0000    Z=             -1.7023  Tot=              1.7023
 Quadrupole moment (field-independent basis, Debye-Ang):
   XX=             -7.6934   YY=             -4.2771   ZZ=             -6.6749
   XY=              0.0000   XZ=              0.0000   YZ=              0.0000
 Traceless Quadrupole moment (field-independent basis, Debye-Ang):
   XX=             -1.4783   YY=              1.9381   ZZ=             -0.4598
   XY=              0.0000   XZ=              0.0000   YZ=              0.0000
 Octapole moment (field-independent basis, Debye-Ang**2):
  XXX=              0.0000  YYY=              0.0000  ZZZ=             -0.8937  XYY=             -0.0000
  XXY=              0.0000  XXZ=             -0.2200  XZZ=              0.0000  YZZ=             -0.0000
  YYZ=             -1.1714  XYZ=             -0.0000
 Hexadecapole moment (field-independent basis, Debye-Ang**3):
 XXXX=             -7.6380 YYYY=             -6.1830 ZZZZ=             -7.7562 XXXY=             -0.0000
 XXXZ=             -0.0000 YYYX=             -0.0000 YYYZ=              0.0000 ZZZX=             -0.0000
 ZZZY=             -0.0000 XXYY=             -2.6471 XXZZ=             -2.5914 YYZZ=             -2.1858
 XXYZ=             -0.0000 YYXZ=              0.0000 ZZXY=             -0.0000
 N-N=           9.643579 E-N=        -200.050439  KE=          76.209428
 Symmetry A1   KE=          67.913782
 Symmetry A2   KE=           0.000000
 Symmetry B1   KE=           4.509921
 Symmetry B2   KE=           3.785725
 No NMR shielding tensors so no spin-rotation constants.
 Leave Link  601 at Wed Sep  3 17:08:28 2025, MaxMem= 12348030976 cpu:               7.2 elap:               0.2
 (Enter /home/hhratchian/gaussian/gdv-20250101-j30+/gdv/l801.exe)
 DoSCS=F DFT=T ScalE2(SS,OS)=  1.000000  1.000000
 Range of M.O.s used for correlation:     1    92
 NBasis=    92 NAE=     5 NBE=     5 NFC=     0 NFV=     0
 NROrb=     92 NOA=     5 NOB=     5 NVA=    87 NVB=    87

 **** Warning!!: The largest alpha MO coefficient is  0.16460020D+02

 Leave Link  801 at Wed Sep  3 17:08:28 2025, MaxMem= 12348030976 cpu:               1.3 elap:               0.1
 (Enter /home/hhratchian/gaussian/gdv-20250101-j30+/gdv/l914.exe)
 RHF ground state
 Doing stability rather than CIS.
 DoSCS=F DFT=T ScalE2(SS,OS)=  1.000000  1.000000
   ScalD2(USS,UOS,TSS,TOS,w)=  1.000000  1.000000  1.000000  1.000000  1.000000
 Keep R1 and R2 ints in memory in symmetry-blocked form, NReq=124134203.
 FoFCou: FMM=F IPFlag=           0 FMFlag=           0 FMFlg1=           0
         NFxFlg=           0 DoJE=F BraDBF=F KetDBF=F FulRan=T
         wScrn=  0.000000 ICntrl=       600 IOpCl=  0 I1Cent=           0 NGrid=           0
         NMat0=    1 NMatS0=   4278 NMatT0=    0 NMatD0=    1 NMtDS0=    0 NMtDT0=    0
 Petite list used in FoFCou.
 MDV= 12348030976 DFT=T IDoStb=1 Mixed=T DoRPA=F DoScal=F NonHer=F
 Making orbital integer symmetry assigments:
 Orbital symmetries:
       Occupied  (A1) (A1) (B2) (A1) (B1)
       Virtual   (A1) (B2) (A1) (B1) (A1) (B2) (B2) (A1) (A2) (B1)
                 (A1) (B2) (A1) (B2) (B2) (A1) (A1) (B1) (A2) (A1)
                 (B1) (A1) (B1) (B2) (A2) (B2) (A1) (A1) (B2) (B1)
                 (B2) (A1) (A2) (B2) (A2) (A1) (B1) (A1) (B2) (B2)
                 (A1) (B1) (A1) (A2) (A1) (B1) (B2) (A1) (B2) (B1)
                 (A1) (A2) (B2) (B2) (A1) (B1) (A2) (B2) (A1) (B1)
                 (A2) (A1) (B1) (B2) (A1) (B2) (B2) (A2) (B2) (A1)
                 (B1) (A1) (A1) (B2) (B1) (A1) (B1) (A1) (A2) (B1)
                 (A2) (B2) (A1) (B2) (A1) (B2) (A1)
    24 initial guesses have been made.
 Convergence on wavefunction:    0.001000000000000
 Davidson Disk Diagonalization:  ConvIn= 1.00D-03 SkipCon=T Conv= 1.00D-03.
 Max sub-space:  1740 initial roots:    24 roots to seek:     1 dimension of matrix:          870
 Iteration     1 Dimension    24 NMult     0 NNew     24
 CISAX will form    24 AO SS matrices at one time.
 NMat=    24 NSing=    12 JSym2X= 2.
 New state      1 was old state      2
 Excitation Energies [eV] at current iteration:
 Root      1 :     6.781728279668240
 Root      2 :     7.298674525429554
 Root      3 :     8.385460582821890
 Root      4 :     8.462809870399596
 Root      5 :     8.482905924055618
 Root      6 :     9.067684469928260
 Root      7 :     9.696749519781703
 Root      8 :     9.794815472081815
 Root      9 :     9.926485312147731
 Root     10 :    10.195326182125134
 Root     11 :    10.278607558776484
 Root     12 :    10.338706263989341
 Root     13 :    10.758805701506088
 Root     14 :    10.790353495770272
 Root     15 :    10.824611450113538
 Root     16 :    11.029561146954739
 Root     17 :    11.310088123095735
 Root     18 :    11.767897801481205
 Root     19 :    11.838080267840862
 Root     20 :    11.857218425523335
 Root     21 :    11.930239918387587
 Root     22 :    12.005269978997324
 Root     23 :    12.380759591387307
 Root     24 :    14.837843190866305
 Iteration     2 Dimension    48 NMult    24 NNew     24
 CISAX will form    24 AO SS matrices at one time.
 NMat=    24 NSing=    12 JSym2X= 2.
 Root      1 not converged, maximum delta is    0.066871473690788
 Excitation Energies [eV] at current iteration:
 Root      1 :     6.628566784131062   Change is   -0.153161495537177
 Root      2 :     7.265834129778181   Change is   -0.032840395651373
 Root      3 :     8.283382415711879   Change is   -0.199523508343740
 Root      4 :     8.291335154417951   Change is   -0.094125428403939
 Root      5 :     8.453089004364132   Change is   -0.009720866035463
 Root      6 :     9.001636527252028   Change is   -0.066047942676230
 Root      7 :     9.355868627504547   Change is   -0.340880892277156
 Root      8 :     9.639760245865684   Change is   -0.155055226216131
 Root      9 :     9.894335209593265   Change is   -0.032150102554466
 Root     10 :     9.922769977512532   Change is   -0.272556204612603
 Root     11 :    10.209751782431198   Change is   -0.128954481558144
 Root     12 :    10.228249578085482   Change is   -0.050357980691003
 Root     13 :    10.541345662933818   Change is   -0.283265787179720
 Root     14 :    10.577094679657225   Change is   -0.213258816113047
 Root     15 :    10.682137727333714   Change is   -0.076667974172372
 Root     16 :    10.987552828698240   Change is   -0.042008318256498
 Root     17 :    10.995602212094402   Change is   -0.314485911001331
 Root     18 :    11.643364579824734   Change is   -0.124533221656471
 Root     19 :    11.799293234134687   Change is   -0.057925191388647
 Root     20 :    11.814425490657330   Change is   -0.023654777183533
 Root     21 :    11.854498459379462   Change is   -0.150771519617861
 Root     22 :    11.890478336587567   Change is   -0.039761581800021
 Root     23 :    12.095384376223542   Change is   -0.285375215163764
 Root     24 :    12.513034425516446   Change is   -2.324808765349859
 Iteration     3 Dimension    54 NMult    48 NNew      6
 CISAX will form     6 AO SS matrices at one time.
 NMat=     6 NSing=     3 JSym2X= 2.
 Root      1 not converged, maximum delta is    0.001411652002396
 Excitation Energies [eV] at current iteration:
 Root      1 :     6.628141734279075   Change is   -0.000425049851987
 Root      2 :     7.265726203594101   Change is   -0.000107926184080
 Root      3 :     8.275470848748766   Change is   -0.007911566963112
 Root      4 :     8.291060918699173   Change is   -0.000274235718777
 Root      5 :     8.453022707219761   Change is   -0.000066297144372
 Root      6 :     8.999371485260887   Change is   -0.002265041991141
 Iteration     4 Dimension    60 NMult    54 NNew      6
 CISAX will form     6 AO SS matrices at one time.
 NMat=     6 NSing=     3 JSym2X= 2.
 Root      1 has converged.
 Excitation Energies [eV] at current iteration:
 Root      1 :     6.628139968618051   Change is   -0.000001765661025
 Root      2 :     7.265725350518136   Change is   -0.000000853075966
 Root      3 :     8.275264966135484   Change is   -0.000205882613283
 Root      4 :     8.291060046048205   Change is   -0.000000872650969
 Root      5 :     8.453022573705445   Change is   -0.000000133514316
 Root      6 :     8.999314523022852   Change is   -0.000056962238036
 Convergence achieved on expansion vectors.
 1PDM for each excited state written to RWF  633
 Ground to excited state transition densities written to RWF  633

 ***********************************************************************
 Stability analysis using <AA,BB:AA,BB> singles matrix:
 ***********************************************************************

 Eigenvectors of the stability matrix:
 
 Eigenvector   1:      Triplet-B1   Eigenvalue= 0.2435797  <S**2>=2.000
       5 ->  6         0.68084
       5 ->  8        -0.13612
       5 -> 10        -0.10762
 The wavefunction is stable under the perturbations considered.
 Leave Link  914 at Wed Sep  3 17:08:30 2025, MaxMem= 12348030976 cpu:              94.7 elap:               1.8
 (Enter /home/hhratchian/gaussian/gdv-20250101-j30+/gdv/l508.exe)
 The wavefunction is already stable.
 Leave Link  508 at Wed Sep  3 17:08:30 2025, MaxMem= 12348030976 cpu:               0.1 elap:               0.0
 (Enter /home/hhratchian/gaussian/gdv-20250101-j30+/gdv/l601.exe)
 Copying SCF densities to generalized density rwf, IOpCl= 0 IROHF=0.
 
 **********************************************************************
 
               Population analysis using the SCF Density.
 
 **********************************************************************
 
 Orbital symmetries:
       Occupied  (A1) (A1) (B2) (A1) (B1)
       Virtual   (A1) (B2) (A1) (B1) (A1) (B2) (B2) (A1) (A2) (B1)
                 (A1) (B2) (A1) (B2) (B2) (A1) (A1) (B1) (A2) (A1)
                 (B1) (A1) (B1) (B2) (A2) (B2) (A1) (A1) (B2) (B1)
                 (B2) (A1) (A2) (B2) (A2) (A1) (B1) (A1) (B2) (B2)
                 (A1) (B1) (A1) (A2) (A1) (B1) (B2) (A1) (B2) (B1)
                 (A1) (A2) (B2) (B2) (A1) (B1) (A2) (B2) (A1) (B1)
                 (A2) (A1) (B1) (B2) (A1) (B2) (B2) (A2) (B2) (A1)
                 (B1) (A1) (A1) (B2) (B1) (A1) (B1) (A1) (A2) (B1)
                 (A2) (B2) (A1) (B2) (A1) (B2) (A1)
 The electronic state is 1-A1.
 Alpha  occ. eigenvalues --      -19.12950      -1.03886      -0.57559      -0.38971      -0.32715
 Alpha virt. eigenvalues --       -0.02046       0.02041       0.07898       0.09335       0.10332
 Alpha virt. eigenvalues --        0.11993       0.15786       0.17088       0.19077       0.23089
 Alpha virt. eigenvalues --        0.23372       0.30827       0.34257       0.36380       0.47602
 Alpha virt. eigenvalues --        0.51556       0.57390       0.58428       0.58653       0.69604
 Alpha virt. eigenvalues --        0.71477       0.72342       0.76779       0.77570       0.78785
 Alpha virt. eigenvalues --        0.80563       0.84239       0.89602       0.90328       0.92543
 Alpha virt. eigenvalues --        0.99941       1.04517       1.04911       1.09250       1.34619
 Alpha virt. eigenvalues --        1.38410       1.43548       1.54838       1.58999       1.82952
 Alpha virt. eigenvalues --        1.89712       1.98844       2.04890       2.06993       2.13719
 Alpha virt. eigenvalues --        2.15673       2.16106       2.20405       2.41628       2.42440
 Alpha virt. eigenvalues --        2.53996       2.63203       2.65655       3.37676       3.51145
 Alpha virt. eigenvalues --        3.72693       3.73797       3.96791       3.98866       4.05968
 Alpha virt. eigenvalues --        4.09914       4.13754       4.15650       4.16006       4.32580
 Alpha virt. eigenvalues --        4.48273       4.88675       4.95707       5.09687       5.10193
 Alpha virt. eigenvalues --        5.22554       5.41638       5.77895       6.07018       6.25393
 Alpha virt. eigenvalues --        6.42943       6.62410       6.73064       6.80413       6.89268
 Alpha virt. eigenvalues --        6.97336       7.11447       7.23097       7.54677       7.64140
 Alpha virt. eigenvalues --        8.43989      16.65659
          Condensed to atoms (all electrons):
               1          2          3
     1  O    7.663520   0.289645   0.289645
     2  H    0.289645   0.621944  -0.032993
     3  H    0.289645  -0.032993   0.621944
 Mulliken charges:
               1
     1  O   -0.242809
     2  H    0.121405
     3  H    0.121405
 Sum of Mulliken charges=  -0.00000
 Mulliken charges with hydrogens summed into heavy atoms:
               1
     1  O   -0.000000
 Electronic spatial extent (au):  <R**2>=             19.4256
 Charge=             -0.0000 electrons
 Dipole moment (field-independent basis, Debye):
    X=             -0.0000    Y=             -0.0000    Z=             -1.7023  Tot=              1.7023
 Quadrupole moment (field-independent basis, Debye-Ang):
   XX=             -7.6934   YY=             -4.2771   ZZ=             -6.6749
   XY=              0.0000   XZ=              0.0000   YZ=              0.0000
 Traceless Quadrupole moment (field-independent basis, Debye-Ang):
   XX=             -1.4783   YY=              1.9381   ZZ=             -0.4598
   XY=              0.0000   XZ=              0.0000   YZ=              0.0000
 Octapole moment (field-independent basis, Debye-Ang**2):
  XXX=              0.0000  YYY=              0.0000  ZZZ=             -0.8937  XYY=             -0.0000
  XXY=              0.0000  XXZ=             -0.2200  XZZ=              0.0000  YZZ=             -0.0000
  YYZ=             -1.1714  XYZ=             -0.0000
 Hexadecapole moment (field-independent basis, Debye-Ang**3):
 XXXX=             -7.6380 YYYY=             -6.1830 ZZZZ=             -7.7562 XXXY=             -0.0000
 XXXZ=             -0.0000 YYYX=             -0.0000 YYYZ=              0.0000 ZZZX=             -0.0000
 ZZZY=             -0.0000 XXYY=             -2.6471 XXZZ=             -2.5914 YYZZ=             -2.1858
 XXYZ=             -0.0000 YYXZ=              0.0000 ZZXY=             -0.0000
 N-N=           9.643579 E-N=        -200.050439  KE=          76.209428
 Symmetry A1   KE=          67.913782
 Symmetry A2   KE=           0.000000
 Symmetry B1   KE=           4.509921
 Symmetry B2   KE=           3.785725
 No NMR shielding tensors so no spin-rotation constants.
 Leave Link  601 at Wed Sep  3 17:08:31 2025, MaxMem= 12348030976 cpu:               4.9 elap:               0.1
 (Enter /home/hhratchian/gaussian/gdv-20250101-j30+/gdv/local/l9999.exe)
 Unable to Open any file for archive entry.
 1\1\GINC-HMNODE009\Stability\RB3LYP\GenECP\H2O1\AABOUTAKA\03-Sep-2025\
 0\\#p B3LYP/genecp stable=opt scf=novaracc guess=mix\\H2O — B3LYP/ge
 necp q=0 m=1 [1/3: Stability]\\0,1\O,0,0.,0.,0.\H,0,0.758602,0.,0.5042
 84\H,0,-0.758602,0.,0.504284\\Version=ES64L-GDVRevJ.30+\State=1-A1\HF=
 -76.4601199\RMSD=4.358e-10\Dipole=0.,0.,0.6697526\Quadrupole=1.4408962
 ,-1.0990641,-0.3418321,0.,0.,0.\PG=C02V [C2(O1),SGV(H2)]\\@
 The archive entry for this job was punched.


 WHEN HAVING A MEETING OF THE MINDS,
 MAKE SURE YOU HAVE THE EQUIPMENT FOR IT.
 Job cpu time:       0 days  0 hours  2 minutes 28.7 seconds.
 Elapsed time:       0 days  0 hours  0 minutes  3.5 seconds.
 File lengths (MBytes):  RWF=     87 Int=      0 D2E=      0 Chk=      3 Scr=      2
 Normal termination of Gaussian DV at Wed Sep  3 17:08:31 2025.
 Initial command:
 /home/hhratchian/gaussian/gdv-20250101-j30+/gdv/local/l1.exe "/scratch/aaboutaka/1590300/Gau-3235675.inp" -scrdir="/scratch/aaboutaka/1590300/"
 Default is to use a total of  56 processors:
                               56 via shared-memory
                                1 via Linda
 Entering Link 1 = /home/hhratchian/gaussian/gdv-20250101-j30+/gdv/local/l1.exe PID=   3236447.
  
 Copyright (c) 1988-2024, Gaussian, Inc.  All Rights Reserved.
  
 This is the private, development version of
 the Gaussian(R) DV system of programs. It is based on
 the Gaussian(R) 16 system (copyright 2016, Gaussian, Inc.),
 the Gaussian(R) 09 system (copyright 2009, Gaussian, Inc.),
 the Gaussian(R) 03 system (copyright 2003, Gaussian, Inc.),
 the Gaussian(R) 98 system (copyright 1998, Gaussian, Inc.),
 the Gaussian(R) 94 system (copyright 1995, Gaussian, Inc.),
 the Gaussian 92(TM) system (copyright 1992, Gaussian, Inc.),
 the Gaussian 90(TM) system (copyright 1990, Gaussian, Inc.),
 the Gaussian 88(TM) system (copyright 1988, Gaussian, Inc.),
 the Gaussian 86(TM) system (copyright 1986, Carnegie Mellon
 University), and the Gaussian 82(TM) system (copyright 1983,
 Carnegie Mellon University). Gaussian is a federally registered
 trademark of Gaussian, Inc.
  
 This software contains proprietary and confidential information,
 including trade secrets, belonging to Gaussian, Inc.
  
 This software is provided under written license and may be
 used, copied, transmitted, or stored only in accord with that
 written license.
  
 The following legend is applicable only to US Government
 contracts under FAR:
  
                    RESTRICTED RIGHTS LEGEND
  
 Use, reproduction and disclosure by the US Government is
 subject to restrictions as set forth in subparagraphs (a)
 and (c) of the Commercial Computer Software - Restricted
 Rights clause in FAR 52.227-19.
  
 Gaussian, Inc.
 340 Quinnipiac St., Bldg. 40, Wallingford CT 06492
  
  
 ---------------------------------------------------------------
 Warning -- This program may not be used in any manner that
 competes with the business of Gaussian, Inc. or will provide
 assistance to any competitor of Gaussian, Inc.  The licensee
 of this program is prohibited from giving any competitor of
 Gaussian, Inc. access to this program.  By using this program,
 the user acknowledges that Gaussian, Inc. is engaged in the
 business of creating and licensing software in the field of
 computational chemistry and represents and warrants to the
 licensee that it is not a competitor of Gaussian, Inc. and that
 it will not use this program in any manner prohibited above.
 ---------------------------------------------------------------
  

 Cite this work as:
 Gaussian Development Version, Revision J.30+,
 M. J. Frisch, G. W. Trucks, G. Scalmani, J. R. Cheeseman, X. Li, 
 J. Bloino, B. G. Janesko, A. V. Marenich, J. Zheng, F. Lipparini, 
 A. Jenkins, A. Liu, H. Liu, H. B. Schlegel, G. E. Scuseria, 
 M. A. Robb, V. Barone, G. A. Petersson, H. Nakatsuji, B. Mennucci, 
 C. Adamo, N. Rega, M. Caricato, H. P. Hratchian, J. V. Ortiz, 
 F. Pawlowski, A. F. Izmaylov, H. Hu, C. Liao, J. L. Sonnenberg, 
 D. Williams-Young, F. Ding, R. Gomperts, F. Egidi, J. Goings, 
 B. Peng, A. Petrone, T. Henderson, D. Ranasinghe, V. G. Zakrzewski, 
 J. Gao, G. Zheng, W. Liang, M. Hada, M. Ehara, K. Toyota, R. Fukuda, 
 J. Hasegawa, M. Ishida, T. Nakajima, Y. Honda, O. Kitao, H. Nakai, 
 T. Vreven, K. Throssell, J. A. Montgomery, Jr., J. E. Peralta, 
 F. Ogliaro, M. J. Bearpark, J. J. Heyd, E. N. Brothers, K. N. Kudin, 
 V. N. Staroverov, T. A. Keith, R. Kobayashi, J. Normand, 
 K. Raghavachari, A. P. Rendell, J. C. Burant, S. S. Iyengar, 
 M. Cossi, J. M. Millam, M. Klene, R. Cammi, R. L. Martin, O. Farkas, 
 J. B. Foresman, and D. J. Fox, Gaussian, Inc., Wallingford CT, 2024.
 
 *******************************************
 Gaussian DV:  ES64L-GDVRevJ.30+ 18-Dec-2024
                  3-Sep-2025 
 *******************************************
 %chk=H2O_B3LYP_genecp_q0_m1.chk
 ----------------------------------------------------------------------
 #p B3LYP guess=read chkbasis geom=allcheck Opt Freq SCF=(fermi, novara
 cc) int=superfinegrid
 ----------------------------------------------------------------------
 1/18=20,19=15,26=5,29=7,38=1/1,3;
 2/9=110,12=2/2;
 3/5=7,6=2,11=2,14=-4,25=1,30=1,67=1,71=1,74=-5,75=-7,116=-2/1,2,3;
 4/5=1/1;
 5/5=2,22=13,38=6/2;
 6/7=2,8=2,9=2,10=2,28=1/1;
 7//1,2,3,16;
 1/18=20,19=15,26=5/3(2);
 2/9=110/2;
 99//99;
 2/9=110/2;
 3/5=7,6=1,11=2,14=-2,25=1,30=1,71=1,74=-5,75=-7,82=7,187=7/1,2,3;
 4/5=5,16=3,69=1/1;
 5/5=2,22=13,38=1/2;
 7//1,2,3,16;
 1/18=20,19=15,26=5/3(-5);
 2/9=110/2;
 6/7=2,8=2,9=2,10=2,19=2,28=1/1;
 99/9=1/99;
 Leave Link    1 at Wed Sep  3 17:08:31 2025, MaxMem=           0 cpu:               1.4 elap:               0.1
 (Enter /home/hhratchian/gaussian/gdv-20250101-j30+/gdv/local/l101.exe)
 
  Hrant - IAPOps =                         0
  Hrant - IAPOp1 =                         0
  Hrant - IAPOp2 =                         0
  Hrant - DoAP   =   F
 
 Structure from the checkpoint file:  "H2O_B3LYP_genecp_q0_m1.chk"
 ---------------------------------------------
 H2O — B3LYP/genecp q=0 m=1 [1/3: Stability]
 ---------------------------------------------
 Charge =     0 Multiplicity =     1
 Z-Matrix found in chk file.
 O,0,0.,0.,0.
 H,0,0.758602,0.,0.504284
 H,0,-0.758602,0.,0.504284
 
 Recover connectivity data from disk.
 Initializing the GIC definitions file.
 ITRead=  0  0  0
 MicOpt= -1 -1 -1
 NAtoms=      3 NQM=        3 NQMF=       0 NMMI=      0 NMMIF=      0
                NMic=       0 NMicF=      0.
                    Isotopes and Nuclear Properties:
 (Nuclear quadrupole moments (NQMom) in fm**2, nuclear magnetic moments (NMagM)
  in nuclear magnetons)

  Atom         1           2           3
 IAtWgt=          16           1           1
 AtmWgt=  15.9949146   1.0078250   1.0078250
 NucSpn=           0           1           1
 AtZEff=    5.600000    1.000000    1.000000
 NQMom=    0.0000000   0.0000000   0.0000000
 NMagM=    0.0000000   2.7928460   2.7928460
 AtZNuc=   8.0000000   1.0000000   1.0000000
 Leave Link  101 at Wed Sep  3 17:08:34 2025, MaxMem= 12348030976 cpu:               4.6 elap:               3.4
 (Enter /home/hhratchian/gaussian/gdv-20250101-j30+/gdv/l103.exe)

 GradGradGradGradGradGradGradGradGradGradGradGradGradGradGradGradGradGrad
 Berny optimization.
 Initialization pass.
                           ----------------------------
                           !    Initial Parameters    !
                           ! (Angstroms and Degrees)  !
 --------------------------                            --------------------------
 ! Name  Definition              Value          Derivative Info.                !
 --------------------------------------------------------------------------------
 ! R1    R(1,2)                  0.9109         estimate D2E/DX2                !
 ! R2    R(1,3)                  0.9109         estimate D2E/DX2                !
 ! A1    A(2,1,3)              112.7717         estimate D2E/DX2                !
 --------------------------------------------------------------------------------
 Trust Radius=3.00D-01 FncErr=1.00D-07 GrdErr=1.00D-07 EigMax=2.50D+02 EigMin=1.00D-04
 Number of steps in this run=     20 maximum allowed number of steps=    100.
 GradGradGradGradGradGradGradGradGradGradGradGradGradGradGradGradGradGrad

 Leave Link  103 at Wed Sep  3 17:08:34 2025, MaxMem= 12348030976 cpu:               0.9 elap:               0.0
 (Enter /home/hhratchian/gaussian/gdv-20250101-j30+/gdv/l202.exe)
                          Input orientation:                          
 ---------------------------------------------------------------------
 Center     Atomic      Atomic             Coordinates (Angstroms)
 Number     Number       Type             X           Y           Z
 ---------------------------------------------------------------------
      1          8           0       -0.000000   -0.000000    0.000000
      2          1           0        0.758602    0.000000    0.504284
      3          1           0       -0.758602   -0.000000    0.504284
 ---------------------------------------------------------------------
                    Distance matrix (angstroms):
                    1          2          3
     1  O    0.000000
     2  H    0.910922   0.000000
     3  H    0.910922   1.517204   0.000000
 Stoichiometry    H2O
 Framework group  C2V[C2(O),SGV(H2)]
 Deg. of freedom     2
 Full point group                 C2V     NOp   4
 RotChk:  IX=0 Diff= 7.38D-16
 Largest Abelian subgroup         C2V     NOp   4
 Largest concise Abelian subgroup C2      NOp   2
                         Standard orientation:                         
 ---------------------------------------------------------------------
 Center     Atomic      Atomic             Coordinates (Angstroms)
 Number     Number       Type             X           Y           Z
 ---------------------------------------------------------------------
      1          8           0       -0.000000    0.000000    0.100857
      2          1           0        0.000000    0.758602   -0.403427
      3          1           0       -0.000000   -0.758602   -0.403427
 ---------------------------------------------------------------------
 Rotational constants (GHZ):        1110.1894251         435.6864908         312.8935057
 Leave Link  202 at Wed Sep  3 17:08:34 2025, MaxMem= 12348030976 cpu:               1.8 elap:               0.1
 (Enter /home/hhratchian/gaussian/gdv-20250101-j30+/gdv/local/l301.exe)
 Basis read from chk: "H2O_B3LYP_genecp_q0_m1.chk" (5D, 7F)
 Pseudo-potential data read from chk file.
 There are    42 symmetry adapted cartesian basis functions of A1  symmetry.
 There are    12 symmetry adapted cartesian basis functions of A2  symmetry.
 There are    20 symmetry adapted cartesian basis functions of B1  symmetry.
 There are    31 symmetry adapted cartesian basis functions of B2  symmetry.
 There are    35 symmetry adapted basis functions of A1  symmetry.
 There are    12 symmetry adapted basis functions of A2  symmetry.
 There are    18 symmetry adapted basis functions of B1  symmetry.
 There are    27 symmetry adapted basis functions of B2  symmetry.
    92 basis functions,   126 primitive gaussians,   105 cartesian basis functions
     5 alpha electrons        5 beta electrons
       nuclear repulsion energy         9.6435792538 Hartrees.
 IExCor=      4002 DFT=T Ex+Corr=B3LYP ScaHFX=  0.200000
 ScaDFX=  0.800000  0.720000  1.000000  0.810000  1.000000  0.000000
 ScaDFX=  0.000000  0.000000  0.000000  0.000000  0.000000  0.000000
 Grid=SuperFine IRanWt=     -1 IRanGd=            0 ICorTp=0 IEDCtl=  2004
 NAtoms=    3 NActive=    3 NUniq=    2 SFac= 2.25D+00 NAtFMM=   60 NAOKFM=F Big=F
 Integral buffers will be    131072 words long.
 Raffenetti 2 integral format.
 Two-electron integral symmetry is turned on.
 No density basis found on file 200724.
 Leave Link  301 at Wed Sep  3 17:08:34 2025, MaxMem= 12348030976 cpu:               1.1 elap:               0.1
 (Enter /home/hhratchian/gaussian/gdv-20250101-j30+/gdv/l302.exe)
 NPDir=0 NMtPBC=     1 NCelOv=     1 NCel=       1 NClECP=     1 NCelD=      1
         NCelK=      1 NCelE2=     1 NClLst=     1 CellRange=     0.0.
 One-electron integrals computed using PRISM.
 One-electron integral symmetry used in STVInt
   4 Symmetry operations used in ECPInt.
 ECPInt:  NShTT=     528 NPrTT=    1270 LenC2=     529 LenP2D=    1253.
 LDataN:  DoStor=T MaxTD1= 6 Len=  172
 NBasis=    92 RedAO= T EigKep=  3.31D-04  NBF=    35    12    18    27
 NBsUse=    92 1.00D-06 EigRej= -1.00D+00 NBFU=    35    12    18    27
 Precomputing XC quadrature grid using
 IXCGrd=   9 Grid=SuperFine IRanWt=          -1 IRanGd=           0 AccXCQ= 0.00D+00.
 Generated NRdTot=       0 NPtTot=      198711 NUsed=           0 NTot=          64
 NSgBfM=   105   105   105   105   105 MxSgAt=     3 MxSgA2=     3 SizInc=   0.000
 NMBTot=     1942 MaxBatPerAtom=      131 MaxMicBPerAtom=      654 NBfPt=            16854118.
 Leave Link  302 at Wed Sep  3 17:08:34 2025, MaxMem= 12348030976 cpu:               6.7 elap:               0.2
 (Enter /home/hhratchian/gaussian/gdv-20250101-j30+/gdv/l303.exe)
 DipDrv:  MaxL=1.
 Leave Link  303 at Wed Sep  3 17:08:35 2025, MaxMem= 12348030976 cpu:               1.6 elap:               0.1
 (Enter /home/hhratchian/gaussian/gdv-20250101-j30+/gdv/l401.exe)
 Initial guess from the checkpoint file:  "H2O_B3LYP_genecp_q0_m1.chk"
 B after Tr=     0.000000   -0.000000    0.000000
         Rot=    1.000000   -0.000000   -0.000000   -0.000000 Ang=   0.00 deg.
 AO Guess basis will be translated and rotated to current coordinates.
 JPrj=2 DoOrth=T DoCkMO=T.
 Initial guess orbital symmetries:
       Occupied  (A1) (A1) (B2) (A1) (B1)
       Virtual   (A1) (B2) (A1) (B1) (A1) (B2) (B2) (A1) (A2) (B1)
                 (A1) (B2) (A1) (B2) (B2) (A1) (A1) (B1) (A2) (A1)
                 (B1) (A1) (B1) (B2) (A2) (B2) (A1) (A1) (B2) (B1)
                 (B2) (A1) (A2) (B2) (A2) (A1) (B1) (A1) (B2) (B2)
                 (A1) (B1) (A1) (A2) (A1) (B1) (B2) (A1) (B2) (B1)
                 (A1) (A2) (B2) (B2) (A1) (B1) (A2) (B2) (A1) (B1)
                 (A2) (A1) (B1) (B2) (A1) (B2) (B2) (A2) (B2) (A1)
                 (B1) (A1) (A1) (B2) (B1) (A1) (B1) (A1) (A2) (B1)
                 (A2) (B2) (A1) (B2) (A1) (B2) (A1)
 The electronic state of the initial guess is 1-A1.
 Leave Link  401 at Wed Sep  3 17:08:35 2025, MaxMem= 12348030976 cpu:               2.6 elap:               0.1
 (Enter /home/hhratchian/gaussian/gdv-20250101-j30+/gdv/local/l502.exe)
 Keep R1 ints in memory in symmetry-blocked form, NReq=61574408.
 FoFCou: FMM=F IPFlag=           0 FMFlag=           0 FMFlg1=           0
         NFxFlg=           0 DoJE=F BraDBF=F KetDBF=F FulRan=T
         wScrn=  0.000000 ICntrl=       600 IOpCl=  0 I1Cent=           0 NGrid=           0
         NMat0=    1 NMatS0=   4278 NMatT0=    0 NMatD0=    1 NMtDS0=    0 NMtDT0=    0
 Petite list used in FoFCou.
 Closed shell SCF:
 Using DIIS extrapolation, IDIIS=    10.
 NGot= 12348030976 LenX= 12345655041 LenY= 12345643575
 Requested convergence on RMS density matrix=1.00D-08 within 128 cycles.
 Requested convergence on MAX density matrix=1.00D-06.
 Requested convergence on             energy=1.00D-06.
 Level shift goal  0.100 maximum shift  0.100.
 No special actions if energy rises.
 Dynamic level shift is on during FON iterations.
 
  Hrant - CycOpn.
 

 Cycle   1  Pass 1  IDiag  1:
 E= -76.4601199294106    
 DIIS: error= 1.06D-08 at cycle   1 NSaved=   1.
 NSaved= 1 IEnMin= 1 EnMin= -76.4601199294106     IErMin= 1 ErrMin= 1.06D-08
 ErrMax= 1.06D-08  0.00D+00 EMaxC= 1.00D+00 BMatC= 5.52D-15 BMatP= 5.52D-15
 Rises=F IDIUse=1 WtCom= 1.00D+00 WtEn= 0.00D+00
 Coeff-Com:  0.100D+01
 Coeff:      0.100D+01
 Gap=     0.307 Goal=     0.100 Shift=    0.000
 RMSDP=3.36D-09 MaxDP=8.41D-08              OVMax= 2.14D-08

 SCF Done:  E(RB3LYP) =  -76.4601199294     A.U. after    1 cycles
            NFock=  1  Conv=0.34D-08     -V/T= 2.0033
 KE=          76.209427 PE=        -200.050439 EE=          37.737312
 Leave Link  502 at Wed Sep  3 17:08:35 2025, MaxMem= 12348030976 cpu:               9.4 elap:               0.3
 (Enter /home/hhratchian/gaussian/gdv-20250101-j30+/gdv/l601.exe)
 Copying SCF densities to generalized density rwf, IOpCl= 0 IROHF=0.
 
 **********************************************************************
 
               Population analysis using the SCF Density.
 
 **********************************************************************
 
 Orbital symmetries:
       Occupied  (A1) (A1) (B2) (A1) (B1)
       Virtual   (A1) (B2) (A1) (B1) (A1) (B2) (B2) (A1) (A2) (B1)
                 (A1) (B2) (A1) (B2) (B2) (A1) (A1) (B1) (A2) (A1)
                 (B1) (A1) (B1) (B2) (A2) (B2) (A1) (A1) (B2) (B1)
                 (B2) (A1) (A2) (B2) (A2) (A1) (B1) (A1) (B2) (B2)
                 (A1) (B1) (A1) (A2) (A1) (B1) (B2) (A1) (B2) (B1)
                 (A1) (A2) (B2) (B2) (A1) (B1) (A2) (B2) (A1) (B1)
                 (A2) (A1) (B1) (B2) (A1) (B2) (B2) (A2) (B2) (A1)
                 (B1) (A1) (A1) (B2) (B1) (A1) (B1) (A1) (A2) (B1)
                 (A2) (B2) (A1) (B2) (A1) (B2) (A1)
 The electronic state is 1-A1.
 Alpha  occ. eigenvalues --      -19.12950      -1.03886      -0.57559      -0.38971      -0.32715
 Alpha virt. eigenvalues --       -0.02045       0.02042       0.07898       0.09335       0.10332
 Alpha virt. eigenvalues --        0.11994       0.15786       0.17088       0.19077       0.23089
 Alpha virt. eigenvalues --        0.23372       0.30827       0.34258       0.36381       0.47602
 Alpha virt. eigenvalues --        0.51556       0.57390       0.58428       0.58653       0.69604
 Alpha virt. eigenvalues --        0.71477       0.72342       0.76779       0.77570       0.78785
 Alpha virt. eigenvalues --        0.80563       0.84240       0.89602       0.90328       0.92543
 Alpha virt. eigenvalues --        0.99941       1.04517       1.04911       1.09250       1.34619
 Alpha virt. eigenvalues --        1.38410       1.43548       1.54838       1.58999       1.82952
 Alpha virt. eigenvalues --        1.89712       1.98844       2.04890       2.06993       2.13720
 Alpha virt. eigenvalues --        2.15673       2.16106       2.20405       2.41628       2.42440
 Alpha virt. eigenvalues --        2.53996       2.63203       2.65655       3.37676       3.51145
 Alpha virt. eigenvalues --        3.72693       3.73797       3.96791       3.98866       4.05968
 Alpha virt. eigenvalues --        4.09914       4.13754       4.15650       4.16006       4.32580
 Alpha virt. eigenvalues --        4.48273       4.88675       4.95707       5.09687       5.10193
 Alpha virt. eigenvalues --        5.22554       5.41638       5.77895       6.07018       6.25393
 Alpha virt. eigenvalues --        6.42943       6.62410       6.73064       6.80413       6.89268
 Alpha virt. eigenvalues --        6.97336       7.11447       7.23097       7.54677       7.64140
 Alpha virt. eigenvalues --        8.43989      16.65659
          Condensed to atoms (all electrons):
               1          2          3
     1  O    7.663520   0.289645   0.289645
     2  H    0.289645   0.621944  -0.032993
     3  H    0.289645  -0.032993   0.621944
 Mulliken charges:
               1
     1  O   -0.242809
     2  H    0.121405
     3  H    0.121405
 Sum of Mulliken charges=  -0.00000
 Mulliken charges with hydrogens summed into heavy atoms:
               1
     1  O   -0.000000
 Electronic spatial extent (au):  <R**2>=             19.4256
 Charge=             -0.0000 electrons
 Dipole moment (field-independent basis, Debye):
    X=             -0.0000    Y=             -0.0000    Z=             -1.7023  Tot=              1.7023
 Quadrupole moment (field-independent basis, Debye-Ang):
   XX=             -7.6934   YY=             -4.2771   ZZ=             -6.6749
   XY=              0.0000   XZ=              0.0000   YZ=             -0.0000
 Traceless Quadrupole moment (field-independent basis, Debye-Ang):
   XX=             -1.4783   YY=              1.9381   ZZ=             -0.4598
   XY=              0.0000   XZ=              0.0000   YZ=             -0.0000
 Octapole moment (field-independent basis, Debye-Ang**2):
  XXX=              0.0000  YYY=              0.0000  ZZZ=             -0.8937  XYY=             -0.0000
  XXY=              0.0000  XXZ=             -0.2200  XZZ=              0.0000  YZZ=              0.0000
  YYZ=             -1.1714  XYZ=             -0.0000
 Hexadecapole moment (field-independent basis, Debye-Ang**3):
 XXXX=             -7.6380 YYYY=             -6.1830 ZZZZ=             -7.7562 XXXY=             -0.0000
 XXXZ=             -0.0000 YYYX=             -0.0000 YYYZ=             -0.0000 ZZZX=             -0.0000
 ZZZY=             -0.0000 XXYY=             -2.6471 XXZZ=             -2.5914 YYZZ=             -2.1858
 XXYZ=             -0.0000 YYXZ=              0.0000 ZZXY=             -0.0000
 N-N=           9.643579 E-N=        -200.050439  KE=          76.209427
 Symmetry A1   KE=          67.913782
 Symmetry A2   KE=           0.000000
 Symmetry B1   KE=           4.509921
 Symmetry B2   KE=           3.785725
 No NMR shielding tensors so no spin-rotation constants.
 Leave Link  601 at Wed Sep  3 17:08:35 2025, MaxMem= 12348030976 cpu:               4.4 elap:               0.1
 (Enter /home/hhratchian/gaussian/gdv-20250101-j30+/gdv/l701.exe)
 ... and contract with generalized density number  0.
 Compute integral first derivatives.
   4 Symmetry operations used in ECPInt.
 ECPInt:  NShTT=     528 NPrTT=    1270 LenC2=     529 LenP2D=    1253.
 LDataN:  DoStor=T MaxTD1= 7 Len=  274
 Leave Link  701 at Wed Sep  3 17:08:35 2025, MaxMem= 12348030976 cpu:               5.1 elap:               0.1
 (Enter /home/hhratchian/gaussian/gdv-20250101-j30+/gdv/l702.exe)
 L702 exits ... SP integral derivatives will be done elsewhere.
 Leave Link  702 at Wed Sep  3 17:08:35 2025, MaxMem= 12348030976 cpu:               0.1 elap:               0.0
 (Enter /home/hhratchian/gaussian/gdv-20250101-j30+/gdv/l703.exe)
 Integral derivatives from FoFJK, PRISM(SPDF).
 Compute integral first derivatives, UseDBF=F ICtDFT=           0.
 Calling FoFJK, ICntrl=      2127 FMM=F ISym2X=1 I1Cent= 0 IOpClX= 0 NMat=1 NMatS=1 NMatT=0.
 FoFJK:  IHMeth= 1 ICntrl=    2127 DoSepK=F KAlg= 0 I1Cent=           0 FoldK=F
 IRaf=         0 NMat=       1 IRICut=       1 DoRegI=T DoRafI=F ISym2E= 1 IDoP0=0 IntGTp=1.
 FoFCou: FMM=F IPFlag=           0 FMFlag=      100000 FMFlg1=         800
         NFxFlg=           0 DoJE=F BraDBF=F KetDBF=F FulRan=T
         wScrn=  0.000000 ICntrl=      2127 IOpCl=  0 I1Cent=           0 NGrid=           0
         NMat0=    1 NMatS0=      1 NMatT0=    0 NMatD0=    1 NMtDS0=    0 NMtDT0=    0
 Petite list used in FoFCou.
 Leave Link  703 at Wed Sep  3 17:08:36 2025, MaxMem= 12348030976 cpu:              20.5 elap:               0.5
 (Enter /home/hhratchian/gaussian/gdv-20250101-j30+/gdv/l716.exe)
 Dipole        =-3.16226599D-17 0.00000000D+00-6.69752515D-01
 ***** Axes restored to original set *****
 -------------------------------------------------------------------
 Center     Atomic                   Forces (Hartrees/Bohr)
 Number     Number              X              Y              Z
 -------------------------------------------------------------------
      1        8          -0.000000000   -0.000000000   -0.076195408
      2        1           0.042449825    0.000000000    0.038097704
      3        1          -0.042449825    0.000000000    0.038097704
 -------------------------------------------------------------------
 Cartesian Forces:  Max     0.076195408 RMS     0.036987364
 Leave Link  716 at Wed Sep  3 17:08:36 2025, MaxMem= 12348030976 cpu:               0.1 elap:               0.0
 (Enter /home/hhratchian/gaussian/gdv-20250101-j30+/gdv/l103.exe)

 GradGradGradGradGradGradGradGradGradGradGradGradGradGradGradGradGradGrad
 Berny optimization.
 FormGI is forming the generalized inverse of G from B-inverse, IUseBI=4.
 NTrRot=    -1 NTRed=     3 NAtoms=     3 NSkip=     0 NRank=     3 IsLin=F EigSml=8.5452D-01
 Internal  Forces:  Max     0.056442341 RMS     0.046804697
 Search for a local minimum.
 Step number   1 out of a maximum of   20
 All quantities printed in internal units (Hartrees-Bohrs-Radians)
 RMS Force = .46805D-01 SwitMx=.10000D-02 MixMth= 1
 Mixed Optimization -- RFO/linear search
 Second derivative matrix not updated -- first step.
 The second derivative matrix:
                          R1        R2        A1
           R1           0.67525
           R2           0.00000   0.67525
           A1           0.00000   0.00000   0.16000
 ITU=  0
     Eigenvalues ---    0.16000   0.67525   0.67525
 RFO step:  Lambda=-1.04682311D-02 EMin= 1.60000000D-01
 Linear search not attempted -- first point.
 GrdOpt: GIC=T ITstSp=  0 NP=   1 DidLin=F DidDIS=F IDoGRo=0 IDoRot=0
         ISwap=1 XLin= 0.000 DXMaxT= 0.300
 Iteration  1 RMS(Cart)=  0.03169968 RMS(Int)=  0.00249693
 Iteration  2 RMS(Cart)=  0.00159009 RMS(Int)=  0.00000320
 Iteration  3 RMS(Cart)=  0.00000127 RMS(Int)=  0.00000000
 Iteration  4 RMS(Cart)=  0.00000000 RMS(Int)=  0.00000000
 ClnCor:  largest displacement from symmetrization is 4.97D-16 for atom     3.
 Variable       Old X    -DE/DX   Delta X   Delta X   Delta X     New X
                                 (Linear)    (Quad)   (Total)
    R1        1.72139   0.05644   0.00000   0.08231   0.08231   1.80370
    R2        1.72139   0.05644   0.00000   0.08231   0.08231   1.80370
    A1        1.96824  -0.01416   0.00000  -0.08308  -0.08308   1.88516
         Item               Value     Threshold  Converged?
 Maximum Force            0.056442     0.000450     NO 
 RMS     Force            0.046805     0.000300     NO 
 Maximum Displacement     0.071389     0.001800     NO 
 RMS     Displacement     0.054694     0.001200     NO 
 Predicted change in Energy=-5.341165D-03
 Lowest energy point so far.  Saving SCF results.
 GradGradGradGradGradGradGradGradGradGradGradGradGradGradGradGradGradGrad

 Leave Link  103 at Wed Sep  3 17:08:36 2025, MaxMem= 12348030976 cpu:               2.6 elap:               0.1
 (Enter /home/hhratchian/gaussian/gdv-20250101-j30+/gdv/l202.exe)
                          Input orientation:                          
 ---------------------------------------------------------------------
 Center     Atomic      Atomic             Coordinates (Angstroms)
 Number     Number       Type             X           Y           Z
 ---------------------------------------------------------------------
      1          8           0       -0.000000    0.000000   -0.037777
      2          1           0        0.772248    0.000000    0.523173
      3          1           0       -0.772248   -0.000000    0.523173
 ---------------------------------------------------------------------
                    Distance matrix (angstroms):
                    1          2          3
     1  O    0.000000
     2  H    0.954480   0.000000
     3  H    0.954480   1.544495   0.000000
 Stoichiometry    H2O
 Framework group  C2V[C2(O),SGV(H2)]
 Deg. of freedom     2
 Full point group                 C2V     NOp   4
 RotChk:  IX=0 Diff= 8.22D-16
 Largest Abelian subgroup         C2V     NOp   4
 Largest concise Abelian subgroup C2      NOp   2
                         Standard orientation:                         
 ---------------------------------------------------------------------
 Center     Atomic      Atomic             Coordinates (Angstroms)
 Number     Number       Type             X           Y           Z
 ---------------------------------------------------------------------
      1          8           0       -0.000000    0.000000    0.112190
      2          1           0       -0.000000    0.772248   -0.448760
      3          1           0       -0.000000   -0.772248   -0.448760
 ---------------------------------------------------------------------
 Rotational constants (GHZ):         897.2205725         420.4253996         286.2789594
 Leave Link  202 at Wed Sep  3 17:08:36 2025, MaxMem= 12348030976 cpu:               1.3 elap:               0.0
 (Enter /home/hhratchian/gaussian/gdv-20250101-j30+/gdv/local/l301.exe)
 Basis read from rwf:  (5D, 7F)
 Pseudo-potential data read from rwf file.
 There are    42 symmetry adapted cartesian basis functions of A1  symmetry.
 There are    12 symmetry adapted cartesian basis functions of A2  symmetry.
 There are    20 symmetry adapted cartesian basis functions of B1  symmetry.
 There are    31 symmetry adapted cartesian basis functions of B2  symmetry.
 There are    35 symmetry adapted basis functions of A1  symmetry.
 There are    12 symmetry adapted basis functions of A2  symmetry.
 There are    18 symmetry adapted basis functions of B1  symmetry.
 There are    27 symmetry adapted basis functions of B2  symmetry.
    92 basis functions,   126 primitive gaussians,   105 cartesian basis functions
     5 alpha electrons        5 beta electrons
       nuclear repulsion energy         9.2132520649 Hartrees.
 IExCor=      4002 DFT=T Ex+Corr=B3LYP ScaHFX=  0.200000
 ScaDFX=  0.800000  0.720000  1.000000  0.810000  1.000000  0.000000
 ScaDFX=  0.000000  0.000000  0.000000  0.000000  0.000000  0.000000
 Grid=SuperFine IRanWt=     -1 IRanGd=            0 ICorTp=0 IEDCtl=  2004
 NAtoms=    3 NActive=    3 NUniq=    2 SFac= 2.25D+00 NAtFMM=   60 NAOKFM=F Big=F
 Integral buffers will be    131072 words long.
 Raffenetti 2 integral format.
 Two-electron integral symmetry is turned on.
 No density basis found on file    724.
 Leave Link  301 at Wed Sep  3 17:08:36 2025, MaxMem= 12348030976 cpu:               0.2 elap:               0.0
 (Enter /home/hhratchian/gaussian/gdv-20250101-j30+/gdv/l302.exe)
 NPDir=0 NMtPBC=     1 NCelOv=     1 NCel=       1 NClECP=     1 NCelD=      1
         NCelK=      1 NCelE2=     1 NClLst=     1 CellRange=     0.0.
 One-electron integrals computed using PRISM.
 One-electron integral symmetry used in STVInt
   4 Symmetry operations used in ECPInt.
 ECPInt:  NShTT=     528 NPrTT=    1270 LenC2=     529 LenP2D=    1253.
 LDataN:  DoStor=T MaxTD1= 6 Len=  172
 NBasis=    92 RedAO= T EigKep=  3.76D-04  NBF=    35    12    18    27
 NBsUse=    92 1.00D-06 EigRej= -1.00D+00 NBFU=    35    12    18    27
 Precomputing XC quadrature grid using
 IXCGrd=   9 Grid=SuperFine IRanWt=          -1 IRanGd=           0 AccXCQ= 0.00D+00.
 Generated NRdTot=       0 NPtTot=      198806 NUsed=           0 NTot=          64
 NSgBfM=   105   105   105   105   105 MxSgAt=     3 MxSgA2=     3 SizInc=   0.000
 NMBTot=     1935 MaxBatPerAtom=      131 MaxMicBPerAtom=      661 NBfPt=            16898463.
 Leave Link  302 at Wed Sep  3 17:08:36 2025, MaxMem= 12348030976 cpu:               8.1 elap:               0.2
 (Enter /home/hhratchian/gaussian/gdv-20250101-j30+/gdv/l303.exe)
 DipDrv:  MaxL=1.
 Leave Link  303 at Wed Sep  3 17:08:36 2025, MaxMem= 12348030976 cpu:               1.5 elap:               0.1
 (Enter /home/hhratchian/gaussian/gdv-20250101-j30+/gdv/l401.exe)
 Initial guess from the checkpoint file:  "H2O_B3LYP_genecp_q0_m1.chk"
 B after Tr=    -0.000000    0.000000   -0.000000
         Rot=    1.000000    0.000000   -0.000000   -0.000000 Ang=   0.00 deg.
 AO Guess basis will be translated and rotated to current coordinates.
 JPrj=2 DoOrth=T DoCkMO=T.
 Initial guess orbital symmetries:
       Occupied  (A1) (A1) (B2) (A1) (B1)
       Virtual   (A1) (B2) (A1) (B1) (A1) (B2) (B2) (A1) (A2) (B1)
                 (A1) (B2) (A1) (B2) (B2) (A1) (A1) (B1) (A2) (A1)
                 (B1) (A1) (B1) (B2) (A2) (B2) (A1) (A1) (B2) (B1)
                 (B2) (A1) (A2) (B2) (A2) (A1) (B1) (A1) (B2) (B2)
                 (A1) (B1) (A1) (A2) (A1) (B1) (B2) (A1) (B2) (B1)
                 (A1) (A2) (B2) (B2) (A1) (B1) (A2) (B2) (A1) (B1)
                 (A2) (A1) (B1) (B2) (A1) (B2) (B2) (A2) (B2) (A1)
                 (B1) (A1) (A1) (B2) (B1) (A1) (B1) (A1) (A2) (B1)
                 (A2) (B2) (A1) (B2) (A1) (B2) (A1)
 The electronic state of the initial guess is 1-A1.
 Generating alternative initial guess.
 ExpMin= 2.53D-02 ExpMax= 1.53D+04 ExpMxC= 5.22D+02 IAcc=3 Grid=SuperFine AccDes= 0.00D+00
 Harris functional with IExCor= 4002 and Grid=SuperFine diagonalized for initial guess.
 HarFok:  IExCor=    4002 AccDes= 0.00D+00 Grid=SuperFine IDoV= 1 UseB2=F ITyADJ=14 ICtDFT=  3500011
 FoFCou: FMM=F IPFlag=           0 FMFlag=      100000 FMFlg1=           0
         NFxFlg=           0 DoJE=T BraDBF=F KetDBF=T FulRan=T
         wScrn=  0.000000 ICntrl=       500 IOpCl=  0 I1Cent=   200000004 NGrid=           0
         NMat0=    1 NMatS0=      1 NMatT0=    0 NMatD0=    1 NMtDS0=    0 NMtDT0=    0
 Petite list used in FoFCou.
 Harris En= -76.4992652584316    
 Leave Link  401 at Wed Sep  3 17:08:37 2025, MaxMem= 12348030976 cpu:               7.8 elap:               0.2
 (Enter /home/hhratchian/gaussian/gdv-20250101-j30+/gdv/local/l502.exe)
 Keep R1 ints in memory in symmetry-blocked form, NReq=61574408.
 FoFCou: FMM=F IPFlag=           0 FMFlag=           0 FMFlg1=           0
         NFxFlg=           0 DoJE=F BraDBF=F KetDBF=F FulRan=T
         wScrn=  0.000000 ICntrl=       600 IOpCl=  0 I1Cent=           0 NGrid=           0
         NMat0=    1 NMatS0=   4278 NMatT0=    0 NMatD0=    1 NMtDS0=    0 NMtDT0=    0
 Petite list used in FoFCou.
 Closed shell SCF:
 Using DIIS extrapolation, IDIIS=    10.
 NGot= 12348030976 LenX= 12345655041 LenY= 12345643575
 Requested convergence on RMS density matrix=1.00D-08 within 128 cycles.
 Requested convergence on MAX density matrix=1.00D-06.
 Requested convergence on             energy=1.00D-06.
 Level shift goal  0.100 maximum shift  0.100.
 No special actions if energy rises.
 Dynamic level shift is on during FON iterations.
 
  Hrant - CycOpn.
 

 Cycle   1  Pass 1  IDiag  1:
 E= -76.4641292140512    
 DIIS: error= 8.23D-03 at cycle   1 NSaved=   1.
 NSaved= 1 IEnMin= 1 EnMin= -76.4641292140512     IErMin= 1 ErrMin= 8.23D-03
 ErrMax= 8.23D-03  0.00D+00 EMaxC= 1.00D+00 BMatC= 1.31D-03 BMatP= 1.31D-03
 Rises=F IDIUse=1 WtCom= 1.00D+00 WtEn= 0.00D+00
 Coeff-Com:  0.100D+01
 Coeff:      0.100D+01
 Gap=     0.328 Goal=     0.100 Shift=    0.000
 T=  720. Gap= 0.296 NK=0 IS=    6 IE=   92 IFin=    5
          NO(<0.9)=   0  NV(>0.1)=   0      5.00e < EF      0.00e >EF  Err=0.0D+00
 GapD=    0.328 DampG=1.000 DampE=1.000 DampFc=1.0000 IDamp=-1.
 RMSDP=7.32D-04 MaxDP=1.28D-02              OVMax= 1.85D-02

 Cycle   2  Pass 1  IDiag  1:
 E= -76.4657992908457     Delta-E=       -0.001670076794 Rises=F Damp=F AM=F Ri=F Fa=F
 DIIS: error= 2.32D-03 at cycle   2 NSaved=   2.
 NSaved= 2 IEnMin= 2 EnMin= -76.4657992908457     IErMin= 2 ErrMin= 2.32D-03
 ErrMax= 2.32D-03  0.00D+00 EMaxC= 1.00D+00 BMatC= 1.06D-04 BMatP= 1.31D-03
 Rises=F IDIUse=1 WtCom= 1.00D+00 WtEn= 0.00D+00
 Coeff-Com:  0.122D+00 0.878D+00
 Coeff:      0.122D+00 0.878D+00
 Gap=     0.304 Goal=     0.100 Shift=    0.000
 T=  555. Gap= 0.304 NK=0 IS=    6 IE=   92 IFin=    5
          NO(<0.9)=   0  NV(>0.1)=   0      5.00e < EF      0.00e >EF  Err=0.0D+00
 GapD=    0.304 DampG=1.000 DampE=1.000 DampFc=1.0000 IDamp=-1.
 RMSDP=1.21D-04 MaxDP=2.41D-03 DE=-1.67D-03 OVMax= 6.90D-03

 Cycle   3  Pass 1  IDiag  1:
 E= -76.4658080338432     Delta-E=       -0.000008742998 Rises=F Damp=F AM=F Ri=F Fa=F
 DIIS: error= 2.45D-03 at cycle   3 NSaved=   3.
 NSaved= 3 IEnMin= 3 EnMin= -76.4658080338432     IErMin= 2 ErrMin= 2.32D-03
 ErrMax= 2.45D-03  0.00D+00 EMaxC= 1.00D+00 BMatC= 9.84D-05 BMatP= 1.06D-04
 Rises=F IDIUse=1 WtCom= 1.00D+00 WtEn= 0.00D+00
 Coeff-Com:  0.131D-01 0.489D+00 0.497D+00
 Coeff:      0.131D-01 0.489D+00 0.497D+00
 Gap=     0.299 Goal=     0.100 Shift=    0.000
 T=  335. Gap= 0.299 NK=0 IS=    6 IE=   92 IFin=    5
          NO(<0.9)=   0  NV(>0.1)=   0      5.00e < EF      0.00e >EF  Err=0.0D+00
 GapD=    0.299 DampG=1.000 DampE=1.000 DampFc=1.0000 IDamp=-1.
 RMSDP=7.10D-05 MaxDP=1.22D-03 DE=-8.74D-06 OVMax= 3.87D-03

 Cycle   4  Pass 1  IDiag  1:
 E= -76.4659274564781     Delta-E=       -0.000119422635 Rises=F Damp=F AM=F Ri=F Fa=F
 DIIS: error= 4.63D-04 at cycle   4 NSaved=   4.
 NSaved= 4 IEnMin= 4 EnMin= -76.4659274564781     IErMin= 4 ErrMin= 4.63D-04
 ErrMax= 4.63D-04  0.00D+00 EMaxC= 1.00D+00 BMatC= 5.07D-06 BMatP= 9.84D-05
 Rises=F IDIUse=1 WtCom= 1.00D+00 WtEn= 0.00D+00
 Coeff-Com: -0.592D-02 0.125D+00 0.235D+00 0.646D+00
 Coeff:     -0.592D-02 0.125D+00 0.235D+00 0.646D+00
 Gap=     0.300 Goal=     0.100 Shift=    0.000
 RMSDP=1.43D-05 MaxDP=2.22D-04 DE=-1.19D-04 OVMax= 7.98D-04

 Cycle   5  Pass 1  IDiag  1:
 E= -76.4659343320360     Delta-E=       -0.000006875558 Rises=F Damp=F AM=F Ri=F Fa=F
 DIIS: error= 1.71D-05 at cycle   5 NSaved=   5.
 NSaved= 5 IEnMin= 5 EnMin= -76.4659343320360     IErMin= 5 ErrMin= 1.71D-05
 ErrMax= 1.71D-05  0.00D+00 EMaxC= 1.00D+00 BMatC= 6.11D-09 BMatP= 5.07D-06
 Rises=F IDIUse=1 WtCom= 1.00D+00 WtEn= 0.00D+00
 Coeff-Com: -0.412D-03-0.438D-02 0.106D-02 0.362D-01 0.968D+00
 Coeff:     -0.412D-03-0.438D-02 0.106D-02 0.362D-01 0.968D+00
 Gap=     0.300 Goal=     0.100 Shift=    0.000
 RMSDP=1.06D-06 MaxDP=3.83D-05 DE=-6.88D-06 OVMax= 5.44D-05

 Cycle   6  Pass 1  IDiag  1:
 E= -76.4659343410016     Delta-E=       -0.000000008966 Rises=F Damp=F AM=F Ri=F Fa=F
 DIIS: error= 1.38D-06 at cycle   6 NSaved=   6.
 NSaved= 6 IEnMin= 6 EnMin= -76.4659343410016     IErMin= 6 ErrMin= 1.38D-06
 ErrMax= 1.38D-06  0.00D+00 EMaxC= 1.00D+00 BMatC= 3.85D-11 BMatP= 6.11D-09
 Rises=F IDIUse=1 WtCom= 1.00D+00 WtEn= 0.00D+00
 Coeff-Com:  0.441D-04-0.121D-02-0.118D-02-0.276D-02 0.764D-02 0.997D+00
 Coeff:      0.441D-04-0.121D-02-0.118D-02-0.276D-02 0.764D-02 0.997D+00
 Gap=     0.300 Goal=     0.100 Shift=    0.000
 RMSDP=7.74D-08 MaxDP=1.56D-06 DE=-8.97D-09 OVMax= 5.90D-06

 Cycle   7  Pass 1  IDiag  1:
 E= -76.4659343410880     Delta-E=       -0.000000000086 Rises=F Damp=F AM=F Ri=F Fa=F
 DIIS: error= 7.96D-08 at cycle   7 NSaved=   7.
 NSaved= 7 IEnMin= 7 EnMin= -76.4659343410880     IErMin= 7 ErrMin= 7.96D-08
 ErrMax= 7.96D-08  0.00D+00 EMaxC= 1.00D+00 BMatC= 1.41D-13 BMatP= 3.85D-11
 Rises=F IDIUse=1 WtCom= 1.00D+00 WtEn= 0.00D+00
 Coeff-Com:  0.144D-05 0.358D-04-0.454D-04-0.431D-03-0.547D-02-0.468D-01
 Coeff-Com:  0.105D+01
 Coeff:      0.144D-05 0.358D-04-0.454D-04-0.431D-03-0.547D-02-0.468D-01
 Coeff:      0.105D+01
 Gap=     0.300 Goal=     0.100 Shift=    0.000
 RMSDP=7.34D-09 MaxDP=1.49D-07 DE=-8.63D-11 OVMax= 5.56D-07

 SCF Done:  E(RB3LYP) =  -76.4659343411     A.U. after    7 cycles
            NFock=  7  Conv=0.73D-08     -V/T= 2.0057
 KE=          76.034970 PE=        -199.117372 EE=          37.403215
 Leave Link  502 at Wed Sep  3 17:08:37 2025, MaxMem= 12348030976 cpu:              20.9 elap:               0.5
 (Enter /home/hhratchian/gaussian/gdv-20250101-j30+/gdv/l701.exe)
 ... and contract with generalized density number  0.
 Compute integral first derivatives.
   4 Symmetry operations used in ECPInt.
 ECPInt:  NShTT=     528 NPrTT=    1270 LenC2=     529 LenP2D=    1253.
 LDataN:  DoStor=T MaxTD1= 7 Len=  274
 Leave Link  701 at Wed Sep  3 17:08:37 2025, MaxMem= 12348030976 cpu:               5.4 elap:               0.2
 (Enter /home/hhratchian/gaussian/gdv-20250101-j30+/gdv/l702.exe)
 L702 exits ... SP integral derivatives will be done elsewhere.
 Leave Link  702 at Wed Sep  3 17:08:37 2025, MaxMem= 12348030976 cpu:               1.3 elap:               0.1
 (Enter /home/hhratchian/gaussian/gdv-20250101-j30+/gdv/l703.exe)
 Integral derivatives from FoFJK, PRISM(SPDF).
 Compute integral first derivatives, UseDBF=F ICtDFT=           0.
 Calling FoFJK, ICntrl=      2127 FMM=F ISym2X=1 I1Cent= 0 IOpClX= 0 NMat=1 NMatS=1 NMatT=0.
 FoFJK:  IHMeth= 1 ICntrl=    2127 DoSepK=F KAlg= 0 I1Cent=           0 FoldK=F
 IRaf=         0 NMat=       1 IRICut=       1 DoRegI=T DoRafI=F ISym2E= 1 IDoP0=0 IntGTp=1.
 FoFCou: FMM=F IPFlag=           0 FMFlag=      100000 FMFlg1=         800
         NFxFlg=           0 DoJE=F BraDBF=F KetDBF=F FulRan=T
         wScrn=  0.000000 ICntrl=      2127 IOpCl=  0 I1Cent=           0 NGrid=           0
         NMat0=    1 NMatS0=      1 NMatT0=    0 NMatD0=    1 NMtDS0=    0 NMtDT0=    0
 Petite list used in FoFCou.
 Leave Link  703 at Wed Sep  3 17:08:38 2025, MaxMem= 12348030976 cpu:              19.3 elap:               0.5
 (Enter /home/hhratchian/gaussian/gdv-20250101-j30+/gdv/l716.exe)
 Dipole        =-3.90562029D-17 0.00000000D+00-7.07725595D-01
 ***** Axes restored to original set *****
 -------------------------------------------------------------------
 Center     Atomic                   Forces (Hartrees/Bohr)
 Number     Number              X              Y              Z
 -------------------------------------------------------------------
      1        8           0.000000000   -0.000000000   -0.013359776
      2        1           0.002551255    0.000000000    0.006679888
      3        1          -0.002551255    0.000000000    0.006679888
 -------------------------------------------------------------------
 Cartesian Forces:  Max     0.013359776 RMS     0.005585131
 Leave Link  716 at Wed Sep  3 17:08:38 2025, MaxMem= 12348030976 cpu:               0.1 elap:               0.0
 (Enter /home/hhratchian/gaussian/gdv-20250101-j30+/gdv/l103.exe)

 GradGradGradGradGradGradGradGradGradGradGradGradGradGradGradGradGradGrad
 Berny optimization.
 Using GEDIIS/GDIIS optimizer.
 FormGI is forming the generalized inverse of G from B-inverse, IUseBI=4.
 NTrRot=    -1 NTRed=     3 NAtoms=     3 NSkip=     0 NRank=     3 IsLin=F EigSml=7.9732D-01
 Internal  Forces:  Max     0.007043767 RMS     0.006360650
 Search for a local minimum.
 Step number   2 out of a maximum of   20
 All quantities printed in internal units (Hartrees-Bohrs-Radians)
 RMS Force = .63607D-02 SwitMx=.10000D-02 MixMth= 1
 Mixed Optimization -- RFO/linear search
 Update second derivatives using D2CorX and points    1    2
 DE= -5.81D-03 DEPred=-5.34D-03 R= 1.09D+00
 TightC=F SS=  1.41D+00  RLast= 1.43D-01 DXNew= 5.0454D-01 4.2903D-01
 Trust test= 1.09D+00 RLast= 1.43D-01 DXMaxT set to 4.29D-01
 The second derivative matrix:
                          R1        R2        A1
           R1           0.66009
           R2          -0.01516   0.66009
           A1           0.03168   0.03168   0.14846
 ITU=  1  0
 Use linear search instead of GDIIS.
     Eigenvalues ---    0.14445   0.64894   0.67525
 RFO step:  Lambda=-3.21205159D-04 EMin= 1.44452885D-01
 Quartic linear search produced a step of  0.21079.
 GrdOpt: GIC=T ITstSp=  0 NP=   2 DidLin=T DidDIS=F IDoGRo=0 IDoRot=0
         ISwap=1 XLin= 0.211 DXMaxT= 0.429
 Iteration  1 RMS(Cart)=  0.01764389 RMS(Int)=  0.00075397
 Iteration  2 RMS(Cart)=  0.00045163 RMS(Int)=  0.00000014
 Iteration  3 RMS(Cart)=  0.00000007 RMS(Int)=  0.00000000
 ClnCor:  largest displacement from symmetrization is 3.30D-16 for atom     1.
 Variable       Old X    -DE/DX   Delta X   Delta X   Delta X     New X
                                 (Linear)    (Quad)   (Total)
    R1        1.80370   0.00599   0.01735  -0.00313   0.01422   1.81792
    R2        1.80370   0.00599   0.01735  -0.00313   0.01422   1.81792
    A1        1.88516  -0.00704  -0.01751  -0.04423  -0.06174   1.82342
         Item               Value     Threshold  Converged?
 Maximum Force            0.007044     0.000450     NO 
 RMS     Force            0.006361     0.000300     NO 
 Maximum Displacement     0.035496     0.001800     NO 
 RMS     Displacement     0.030946     0.001200     NO 
 Predicted change in Energy=-2.475013D-04
 Lowest energy point so far.  Saving SCF results.
 GradGradGradGradGradGradGradGradGradGradGradGradGradGradGradGradGradGrad

 Leave Link  103 at Wed Sep  3 17:08:38 2025, MaxMem= 12348030976 cpu:               1.5 elap:               0.1
 (Enter /home/hhratchian/gaussian/gdv-20250101-j30+/gdv/l202.exe)
                          Input orientation:                          
 ---------------------------------------------------------------------
 Center     Atomic      Atomic             Coordinates (Angstroms)
 Number     Number       Type             X           Y           Z
 ---------------------------------------------------------------------
      1          8           0       -0.000000    0.000000   -0.056561
      2          1           0        0.760515    0.000000    0.532565
      3          1           0       -0.760515   -0.000000    0.532565
 ---------------------------------------------------------------------
                    Distance matrix (angstroms):
                    1          2          3
     1  O    0.000000
     2  H    0.962004   0.000000
     3  H    0.962004   1.521031   0.000000
 Stoichiometry    H2O
 Framework group  C2V[C2(O),SGV(H2)]
 Deg. of freedom     2
 Full point group                 C2V     NOp   4
 RotChk:  IX=0 Diff= 2.22D-16
 Largest Abelian subgroup         C2V     NOp   4
 Largest concise Abelian subgroup C2      NOp   2
                         Standard orientation:                         
 ---------------------------------------------------------------------
 Center     Atomic      Atomic             Coordinates (Angstroms)
 Number     Number       Type             X           Y           Z
 ---------------------------------------------------------------------
      1          8           0       -0.000000    0.000000    0.117825
      2          1           0       -0.000000    0.760515   -0.471300
      3          1           0       -0.000000   -0.760515   -0.471300
 ---------------------------------------------------------------------
 Rotational constants (GHZ):         813.4514854         433.4969900         282.7933771
 Leave Link  202 at Wed Sep  3 17:08:38 2025, MaxMem= 12348030976 cpu:               1.2 elap:               0.0
 (Enter /home/hhratchian/gaussian/gdv-20250101-j30+/gdv/local/l301.exe)
 Basis read from rwf:  (5D, 7F)
 Pseudo-potential data read from rwf file.
 There are    42 symmetry adapted cartesian basis functions of A1  symmetry.
 There are    12 symmetry adapted cartesian basis functions of A2  symmetry.
 There are    20 symmetry adapted cartesian basis functions of B1  symmetry.
 There are    31 symmetry adapted cartesian basis functions of B2  symmetry.
 There are    35 symmetry adapted basis functions of A1  symmetry.
 There are    12 symmetry adapted basis functions of A2  symmetry.
 There are    18 symmetry adapted basis functions of B1  symmetry.
 There are    27 symmetry adapted basis functions of B2  symmetry.
    92 basis functions,   126 primitive gaussians,   105 cartesian basis functions
     5 alpha electrons        5 beta electrons
       nuclear repulsion energy         9.1491503006 Hartrees.
 IExCor=      4002 DFT=T Ex+Corr=B3LYP ScaHFX=  0.200000
 ScaDFX=  0.800000  0.720000  1.000000  0.810000  1.000000  0.000000
 ScaDFX=  0.000000  0.000000  0.000000  0.000000  0.000000  0.000000
 Grid=SuperFine IRanWt=     -1 IRanGd=            0 ICorTp=0 IEDCtl=  2004
 NAtoms=    3 NActive=    3 NUniq=    2 SFac= 2.25D+00 NAtFMM=   60 NAOKFM=F Big=F
 Integral buffers will be    131072 words long.
 Raffenetti 2 integral format.
 Two-electron integral symmetry is turned on.
 No density basis found on file    724.
 Leave Link  301 at Wed Sep  3 17:08:38 2025, MaxMem= 12348030976 cpu:               1.4 elap:               0.1
 (Enter /home/hhratchian/gaussian/gdv-20250101-j30+/gdv/l302.exe)
 NPDir=0 NMtPBC=     1 NCelOv=     1 NCel=       1 NClECP=     1 NCelD=      1
         NCelK=      1 NCelE2=     1 NClLst=     1 CellRange=     0.0.
 One-electron integrals computed using PRISM.
 One-electron integral symmetry used in STVInt
   4 Symmetry operations used in ECPInt.
 ECPInt:  NShTT=     528 NPrTT=    1270 LenC2=     529 LenP2D=    1251.
 LDataN:  DoStor=T MaxTD1= 6 Len=  172
 NBasis=    92 RedAO= T EigKep=  3.89D-04  NBF=    35    12    18    27
 NBsUse=    92 1.00D-06 EigRej= -1.00D+00 NBFU=    35    12    18    27
 Precomputing XC quadrature grid using
 IXCGrd=   9 Grid=SuperFine IRanWt=          -1 IRanGd=           0 AccXCQ= 0.00D+00.
 Generated NRdTot=       0 NPtTot=      198848 NUsed=           0 NTot=          64
 NSgBfM=   105   105   105   105   105 MxSgAt=     3 MxSgA2=     3 SizInc=   0.000
 NMBTot=     1914 MaxBatPerAtom=      131 MaxMicBPerAtom=      651 NBfPt=            16897743.
 Leave Link  302 at Wed Sep  3 17:08:38 2025, MaxMem= 12348030976 cpu:               6.0 elap:               0.2
 (Enter /home/hhratchian/gaussian/gdv-20250101-j30+/gdv/l303.exe)
 DipDrv:  MaxL=1.
 Leave Link  303 at Wed Sep  3 17:08:38 2025, MaxMem= 12348030976 cpu:               2.7 elap:               0.1
 (Enter /home/hhratchian/gaussian/gdv-20250101-j30+/gdv/l401.exe)
 Initial guess from the checkpoint file:  "H2O_B3LYP_genecp_q0_m1.chk"
 B after Tr=     0.000000    0.000000    0.000000
         Rot=    1.000000    0.000000    0.000000    0.000000 Ang=   0.00 deg.
 AO Guess basis will be translated and rotated to current coordinates.
 JPrj=2 DoOrth=T DoCkMO=T.
 Initial guess orbital symmetries:
       Occupied  (A1) (A1) (B2) (A1) (B1)
       Virtual   (A1) (B2) (A1) (B1) (A1) (B2) (B2) (A1) (A2) (B1)
                 (A1) (B2) (A1) (B2) (B2) (A1) (A1) (A2) (B1) (A1)
                 (B1) (A1) (B1) (B2) (A2) (B2) (A1) (A1) (B2) (B1)
                 (B2) (A1) (A2) (B2) (A2) (A1) (B1) (A1) (B2) (B2)
                 (A1) (B1) (A2) (A1) (A1) (B1) (B2) (A1) (B2) (B1)
                 (A1) (B2) (A2) (B2) (A1) (B1) (A2) (A1) (B2) (B1)
                 (A2) (B1) (A1) (B2) (A1) (B2) (B2) (A2) (B2) (A1)
                 (B1) (A1) (A1) (B2) (B1) (A1) (B1) (B1) (A1) (A2)
                 (A2) (B2) (A1) (B2) (A1) (B2) (A1)
 The electronic state of the initial guess is 1-A1.
 Generating alternative initial guess.
 ExpMin= 2.53D-02 ExpMax= 1.53D+04 ExpMxC= 5.22D+02 IAcc=3 Grid=SuperFine AccDes= 0.00D+00
 Harris functional with IExCor= 4002 and Grid=SuperFine diagonalized for initial guess.
 HarFok:  IExCor=    4002 AccDes= 0.00D+00 Grid=SuperFine IDoV= 1 UseB2=F ITyADJ=14 ICtDFT=  3500011
 FoFCou: FMM=F IPFlag=           0 FMFlag=      100000 FMFlg1=           0
         NFxFlg=           0 DoJE=T BraDBF=F KetDBF=T FulRan=T
         wScrn=  0.000000 ICntrl=       500 IOpCl=  0 I1Cent=   200000004 NGrid=           0
         NMat0=    1 NMatS0=      1 NMatT0=    0 NMatD0=    1 NMtDS0=    0 NMtDT0=    0
 Petite list used in FoFCou.
 Harris En= -76.4984144461696    
 Leave Link  401 at Wed Sep  3 17:08:39 2025, MaxMem= 12348030976 cpu:               7.7 elap:               0.2
 (Enter /home/hhratchian/gaussian/gdv-20250101-j30+/gdv/local/l502.exe)
 Keep R1 ints in memory in symmetry-blocked form, NReq=61574408.
 FoFCou: FMM=F IPFlag=           0 FMFlag=           0 FMFlg1=           0
         NFxFlg=           0 DoJE=F BraDBF=F KetDBF=F FulRan=T
         wScrn=  0.000000 ICntrl=       600 IOpCl=  0 I1Cent=           0 NGrid=           0
         NMat0=    1 NMatS0=   4278 NMatT0=    0 NMatD0=    1 NMtDS0=    0 NMtDT0=    0
 Petite list used in FoFCou.
 Closed shell SCF:
 Using DIIS extrapolation, IDIIS=    10.
 NGot= 12348030976 LenX= 12345655041 LenY= 12345643575
 Requested convergence on RMS density matrix=1.00D-08 within 128 cycles.
 Requested convergence on MAX density matrix=1.00D-06.
 Requested convergence on             energy=1.00D-06.
 Level shift goal  0.100 maximum shift  0.100.
 No special actions if energy rises.
 Dynamic level shift is on during FON iterations.
 
  Hrant - CycOpn.
 

 Cycle   1  Pass 1  IDiag  1:
 E= -76.4659361284809    
 DIIS: error= 2.37D-03 at cycle   1 NSaved=   1.
 NSaved= 1 IEnMin= 1 EnMin= -76.4659361284809     IErMin= 1 ErrMin= 2.37D-03
 ErrMax= 2.37D-03  0.00D+00 EMaxC= 1.00D+00 BMatC= 1.36D-04 BMatP= 1.36D-04
 Rises=F IDIUse=1 WtCom= 1.00D+00 WtEn= 0.00D+00
 Coeff-Com:  0.100D+01
 Coeff:      0.100D+01
 Gap=     0.309 Goal=     0.100 Shift=    0.000
 GapD=    0.309 DampG=1.000 DampE=1.000 DampFc=1.0000 IDamp=-1.
 RMSDP=2.02D-04 MaxDP=3.86D-03              OVMax= 7.61D-03

 Cycle   2  Pass 1  IDiag  1:
 E= -76.4661833744782     Delta-E=       -0.000247245997 Rises=F Damp=F AM=F Ri=F Fa=F
 DIIS: error= 3.75D-04 at cycle   2 NSaved=   2.
 NSaved= 2 IEnMin= 2 EnMin= -76.4661833744782     IErMin= 2 ErrMin= 3.75D-04
 ErrMax= 3.75D-04  0.00D+00 EMaxC= 1.00D+00 BMatC= 4.22D-06 BMatP= 1.36D-04
 Rises=F IDIUse=1 WtCom= 1.00D+00 WtEn= 0.00D+00
 Coeff-Com:  0.289D-01 0.971D+00
 Coeff:      0.289D-01 0.971D+00
 Gap=     0.299 Goal=     0.100 Shift=    0.000
 RMSDP=2.66D-05 MaxDP=7.63D-04 DE=-2.47D-04 OVMax= 1.13D-03

 Cycle   3  Pass 1  IDiag  1:
 E= -76.4661881825028     Delta-E=       -0.000004808025 Rises=F Damp=F AM=F Ri=F Fa=F
 DIIS: error= 1.90D-04 at cycle   3 NSaved=   3.
 NSaved= 3 IEnMin= 3 EnMin= -76.4661881825028     IErMin= 3 ErrMin= 1.90D-04
 ErrMax= 1.90D-04  0.00D+00 EMaxC= 1.00D+00 BMatC= 7.78D-07 BMatP= 4.22D-06
 Rises=F IDIUse=1 WtCom= 1.00D+00 WtEn= 0.00D+00
 Coeff-Com: -0.127D-01 0.284D+00 0.729D+00
 Coeff:     -0.127D-01 0.284D+00 0.729D+00
 Gap=     0.299 Goal=     0.100 Shift=    0.000
 RMSDP=7.75D-06 MaxDP=1.24D-04 DE=-4.81D-06 OVMax= 4.57D-04

 Cycle   4  Pass 1  IDiag  1:
 E= -76.4661889965880     Delta-E=       -0.000000814085 Rises=F Damp=F AM=F Ri=F Fa=F
 DIIS: error= 1.16D-04 at cycle   4 NSaved=   4.
 NSaved= 4 IEnMin= 4 EnMin= -76.4661889965880     IErMin= 4 ErrMin= 1.16D-04
 ErrMax= 1.16D-04  0.00D+00 EMaxC= 1.00D+00 BMatC= 2.33D-07 BMatP= 7.78D-07
 Rises=F IDIUse=1 WtCom= 1.00D+00 WtEn= 0.00D+00
 Coeff-Com: -0.823D-02 0.148D+00 0.444D+00 0.416D+00
 Coeff:     -0.823D-02 0.148D+00 0.444D+00 0.416D+00
 Gap=     0.299 Goal=     0.100 Shift=    0.000
 RMSDP=3.11D-06 MaxDP=5.25D-05 DE=-8.14D-07 OVMax= 1.66D-04

 Cycle   5  Pass 1  IDiag  1:
 E= -76.4661892990620     Delta-E=       -0.000000302474 Rises=F Damp=F AM=F Ri=F Fa=F
 DIIS: error= 7.39D-06 at cycle   5 NSaved=   5.
 NSaved= 5 IEnMin= 5 EnMin= -76.4661892990620     IErMin= 5 ErrMin= 7.39D-06
 ErrMax= 7.39D-06  0.00D+00 EMaxC= 1.00D+00 BMatC= 9.79D-10 BMatP= 2.33D-07
 Rises=F IDIUse=1 WtCom= 1.00D+00 WtEn= 0.00D+00
 Coeff-Com:  0.971D-04-0.949D-02-0.422D-02 0.505D-01 0.963D+00
 Coeff:      0.971D-04-0.949D-02-0.422D-02 0.505D-01 0.963D+00
 Gap=     0.299 Goal=     0.100 Shift=    0.000
 RMSDP=3.18D-07 MaxDP=9.00D-06 DE=-3.02D-07 OVMax= 1.35D-05

 Cycle   6  Pass 1  IDiag  1:
 E= -76.4661893003687     Delta-E=       -0.000000001307 Rises=F Damp=F AM=F Ri=F Fa=F
 DIIS: error= 2.06D-07 at cycle   6 NSaved=   6.
 NSaved= 6 IEnMin= 6 EnMin= -76.4661893003687     IErMin= 6 ErrMin= 2.06D-07
 ErrMax= 2.06D-07  0.00D+00 EMaxC= 1.00D+00 BMatC= 1.05D-12 BMatP= 9.79D-10
 Rises=F IDIUse=1 WtCom= 1.00D+00 WtEn= 0.00D+00
 Coeff-Com:  0.460D-04-0.115D-02-0.156D-02 0.126D-02 0.341D-01 0.967D+00
 Coeff:      0.460D-04-0.115D-02-0.156D-02 0.126D-02 0.341D-01 0.967D+00
 Gap=     0.299 Goal=     0.100 Shift=    0.000
 RMSDP=1.50D-08 MaxDP=2.58D-07 DE=-1.31D-09 OVMax= 1.17D-06

 Cycle   7  Pass 1  IDiag  1:
 E= -76.4661893003715     Delta-E=       -0.000000000003 Rises=F Damp=F AM=F Ri=F Fa=F
 DIIS: error= 2.66D-08 at cycle   7 NSaved=   7.
 NSaved= 7 IEnMin= 7 EnMin= -76.4661893003715     IErMin= 7 ErrMin= 2.66D-08
 ErrMax= 2.66D-08  0.00D+00 EMaxC= 1.00D+00 BMatC= 1.39D-14 BMatP= 1.05D-12
 Rises=F IDIUse=1 WtCom= 1.00D+00 WtEn= 0.00D+00
 Coeff-Com: -0.653D-06 0.481D-04-0.788D-04-0.239D-03-0.591D-02-0.473D-01
 Coeff-Com:  0.105D+01
 Coeff:     -0.653D-06 0.481D-04-0.788D-04-0.239D-03-0.591D-02-0.473D-01
 Coeff:      0.105D+01
 Gap=     0.299 Goal=     0.100 Shift=    0.000
 RMSDP=2.04D-09 MaxDP=3.34D-08 DE=-2.80D-12 OVMax= 1.23D-07

 SCF Done:  E(RB3LYP) =  -76.4661893004     A.U. after    7 cycles
            NFock=  7  Conv=0.20D-08     -V/T= 2.0060
 KE=          76.013101 PE=        -198.974856 EE=          37.346415
 Leave Link  502 at Wed Sep  3 17:08:39 2025, MaxMem= 12348030976 cpu:              20.1 elap:               0.5
 (Enter /home/hhratchian/gaussian/gdv-20250101-j30+/gdv/l701.exe)
 ... and contract with generalized density number  0.
 Compute integral first derivatives.
   4 Symmetry operations used in ECPInt.
 ECPInt:  NShTT=     528 NPrTT=    1270 LenC2=     529 LenP2D=    1251.
 LDataN:  DoStor=T MaxTD1= 7 Len=  274
 Leave Link  701 at Wed Sep  3 17:08:39 2025, MaxMem= 12348030976 cpu:               7.9 elap:               0.2
 (Enter /home/hhratchian/gaussian/gdv-20250101-j30+/gdv/l702.exe)
 L702 exits ... SP integral derivatives will be done elsewhere.
 Leave Link  702 at Wed Sep  3 17:08:39 2025, MaxMem= 12348030976 cpu:               1.3 elap:               0.1
 (Enter /home/hhratchian/gaussian/gdv-20250101-j30+/gdv/l703.exe)
 Integral derivatives from FoFJK, PRISM(SPDF).
 Compute integral first derivatives, UseDBF=F ICtDFT=           0.
 Calling FoFJK, ICntrl=      2127 FMM=F ISym2X=1 I1Cent= 0 IOpClX= 0 NMat=1 NMatS=1 NMatT=0.
 FoFJK:  IHMeth= 1 ICntrl=    2127 DoSepK=F KAlg= 0 I1Cent=           0 FoldK=F
 IRaf=         0 NMat=       1 IRICut=       1 DoRegI=T DoRafI=F ISym2E= 1 IDoP0=0 IntGTp=1.
 FoFCou: FMM=F IPFlag=           0 FMFlag=      100000 FMFlg1=         800
         NFxFlg=           0 DoJE=F BraDBF=F KetDBF=F FulRan=T
         wScrn=  0.000000 ICntrl=      2127 IOpCl=  0 I1Cent=           0 NGrid=           0
         NMat0=    1 NMatS0=      1 NMatT0=    0 NMatD0=    1 NMtDS0=    0 NMtDT0=    0
 Petite list used in FoFCou.
 Leave Link  703 at Wed Sep  3 17:08:40 2025, MaxMem= 12348030976 cpu:              16.7 elap:               0.4
 (Enter /home/hhratchian/gaussian/gdv-20250101-j30+/gdv/l716.exe)
 Dipole        =-3.94560137D-17 0.00000000D+00-7.30388228D-01
 ***** Axes restored to original set *****
 -------------------------------------------------------------------
 Center     Atomic                   Forces (Hartrees/Bohr)
 Number     Number              X              Y              Z
 -------------------------------------------------------------------
      1        8           0.000000000   -0.000000000    0.001257910
      2        1           0.000695146    0.000000000   -0.000628955
      3        1          -0.000695146    0.000000000   -0.000628955
 -------------------------------------------------------------------
 Cartesian Forces:  Max     0.001257910 RMS     0.000609185
 Leave Link  716 at Wed Sep  3 17:08:40 2025, MaxMem= 12348030976 cpu:               0.1 elap:               0.0
 (Enter /home/hhratchian/gaussian/gdv-20250101-j30+/gdv/l103.exe)

 GradGradGradGradGradGradGradGradGradGradGradGradGradGradGradGradGradGrad
 Berny optimization.
 Using GEDIIS/GDIIS optimizer.
 FormGI is forming the generalized inverse of G from B-inverse, IUseBI=4.
 NTrRot=    -1 NTRed=     3 NAtoms=     3 NSkip=     0 NRank=     3 IsLin=F EigSml=7.7795D-01
 Internal  Forces:  Max     0.001677809 RMS     0.000977937
 Search for a local minimum.
 Step number   3 out of a maximum of   20
 All quantities printed in internal units (Hartrees-Bohrs-Radians)
 RMS Force = .97794D-03 SwitMx=.10000D-02 MixMth= 2
 Mixed Optimization -- En-DIIS/RFO-DIIS
 Update second derivatives using D2CorX and points    1    2    3
 DE= -2.55D-04 DEPred=-2.48D-04 R= 1.03D+00
 TightC=F SS=  1.41D+00  RLast= 6.49D-02 DXNew= 7.2154D-01 1.9479D-01
 Trust test= 1.03D+00 RLast= 6.49D-02 DXMaxT set to 4.29D-01
 The second derivative matrix:
                          R1        R2        A1
           R1           0.63063
           R2          -0.04462   0.63063
           A1           0.04062   0.04062   0.15998
 ITU=  1  1  0
 Use linear search instead of GDIIS.
     Eigenvalues ---    0.15237   0.59362   0.67525
 RFO step:  Lambda=-3.89391529D-06 EMin= 1.52369771D-01
 Quartic linear search produced a step of -0.13863.
 GrdOpt: GIC=T ITstSp=  0 NP=   3 DidLin=T DidDIS=F IDoGRo=0 IDoRot=0
         ISwap=1 XLin=-0.139 DXMaxT= 0.429
 Iteration  1 RMS(Cart)=  0.00338236 RMS(Int)=  0.00002088
 Iteration  2 RMS(Cart)=  0.00001079 RMS(Int)=  0.00000000
 Iteration  3 RMS(Cart)=  0.00000000 RMS(Int)=  0.00000000
 ClnCor:  largest displacement from symmetrization is 3.14D-16 for atom     3.
 Variable       Old X    -DE/DX   Delta X   Delta X   Delta X     New X
                                 (Linear)    (Quad)   (Total)
    R1        1.81792   0.00016  -0.00197   0.00152  -0.00045   1.81748
    R2        1.81792   0.00016  -0.00197   0.00152  -0.00045   1.81748
    A1        1.82342   0.00168   0.00856   0.00204   0.01060   1.83402
         Item               Value     Threshold  Converged?
 Maximum Force            0.001678     0.000450     NO 
 RMS     Force            0.000978     0.000300     NO 
 Maximum Displacement     0.005524     0.001800     NO 
 RMS     Displacement     0.005849     0.001200     NO 
 Predicted change in Energy=-8.917954D-06
 Lowest energy point so far.  Saving SCF results.
 GradGradGradGradGradGradGradGradGradGradGradGradGradGradGradGradGradGrad

 Leave Link  103 at Wed Sep  3 17:08:40 2025, MaxMem= 12348030976 cpu:               1.4 elap:               0.1
 (Enter /home/hhratchian/gaussian/gdv-20250101-j30+/gdv/l202.exe)
                          Input orientation:                          
 ---------------------------------------------------------------------
 Center     Atomic      Atomic             Coordinates (Angstroms)
 Number     Number       Type             X           Y           Z
 ---------------------------------------------------------------------
      1          8           0       -0.000000    0.000000   -0.053774
      2          1           0        0.763438    0.000000    0.531171
      3          1           0       -0.763438   -0.000000    0.531171
 ---------------------------------------------------------------------
                    Distance matrix (angstroms):
                    1          2          3
     1  O    0.000000
     2  H    0.961768   0.000000
     3  H    0.961768   1.526877   0.000000
 Stoichiometry    H2O
 Framework group  C2V[C2(O),SGV(H2)]
 Deg. of freedom     2
 Full point group                 C2V     NOp   4
 RotChk:  IX=0 Diff= 6.15D-16
 Largest Abelian subgroup         C2V     NOp   4
 Largest concise Abelian subgroup C2      NOp   2
                         Standard orientation:                         
 ---------------------------------------------------------------------
 Center     Atomic      Atomic             Coordinates (Angstroms)
 Number     Number       Type             X           Y           Z
 ---------------------------------------------------------------------
      1          8           0       -0.000000    0.000000    0.116989
      2          1           0        0.000000    0.763438   -0.467956
      3          1           0       -0.000000   -0.763438   -0.467956
 ---------------------------------------------------------------------
 Rotational constants (GHZ):         825.1219603         430.1839327         282.7631192
 Leave Link  202 at Wed Sep  3 17:08:40 2025, MaxMem= 12348030976 cpu:               1.3 elap:               0.0
 (Enter /home/hhratchian/gaussian/gdv-20250101-j30+/gdv/local/l301.exe)
 Basis read from rwf:  (5D, 7F)
 Pseudo-potential data read from rwf file.
 There are    42 symmetry adapted cartesian basis functions of A1  symmetry.
 There are    12 symmetry adapted cartesian basis functions of A2  symmetry.
 There are    20 symmetry adapted cartesian basis functions of B1  symmetry.
 There are    31 symmetry adapted cartesian basis functions of B2  symmetry.
 There are    35 symmetry adapted basis functions of A1  symmetry.
 There are    12 symmetry adapted basis functions of A2  symmetry.
 There are    18 symmetry adapted basis functions of B1  symmetry.
 There are    27 symmetry adapted basis functions of B2  symmetry.
    92 basis functions,   126 primitive gaussians,   105 cartesian basis functions
     5 alpha electrons        5 beta electrons
       nuclear repulsion energy         9.1499803128 Hartrees.
 IExCor=      4002 DFT=T Ex+Corr=B3LYP ScaHFX=  0.200000
 ScaDFX=  0.800000  0.720000  1.000000  0.810000  1.000000  0.000000
 ScaDFX=  0.000000  0.000000  0.000000  0.000000  0.000000  0.000000
 Grid=SuperFine IRanWt=     -1 IRanGd=            0 ICorTp=0 IEDCtl=  2004
 NAtoms=    3 NActive=    3 NUniq=    2 SFac= 2.25D+00 NAtFMM=   60 NAOKFM=F Big=F
 Integral buffers will be    131072 words long.
 Raffenetti 2 integral format.
 Two-electron integral symmetry is turned on.
 No density basis found on file    724.
 Leave Link  301 at Wed Sep  3 17:08:40 2025, MaxMem= 12348030976 cpu:               0.2 elap:               0.0
 (Enter /home/hhratchian/gaussian/gdv-20250101-j30+/gdv/l302.exe)
 NPDir=0 NMtPBC=     1 NCelOv=     1 NCel=       1 NClECP=     1 NCelD=      1
         NCelK=      1 NCelE2=     1 NClLst=     1 CellRange=     0.0.
 One-electron integrals computed using PRISM.
 One-electron integral symmetry used in STVInt
   4 Symmetry operations used in ECPInt.
 ECPInt:  NShTT=     528 NPrTT=    1270 LenC2=     529 LenP2D=    1251.
 LDataN:  DoStor=T MaxTD1= 6 Len=  172
 NBasis=    92 RedAO= T EigKep=  3.88D-04  NBF=    35    12    18    27
 NBsUse=    92 1.00D-06 EigRej= -1.00D+00 NBFU=    35    12    18    27
 Precomputing XC quadrature grid using
 IXCGrd=   9 Grid=SuperFine IRanWt=          -1 IRanGd=           0 AccXCQ= 0.00D+00.
 Generated NRdTot=       0 NPtTot=      198781 NUsed=           0 NTot=          64
 NSgBfM=   105   105   105   105   105 MxSgAt=     3 MxSgA2=     3 SizInc=   0.000
 NMBTot=     1915 MaxBatPerAtom=      131 MaxMicBPerAtom=      645 NBfPt=            16895610.
 Leave Link  302 at Wed Sep  3 17:08:40 2025, MaxMem= 12348030976 cpu:               5.9 elap:               0.2
 (Enter /home/hhratchian/gaussian/gdv-20250101-j30+/gdv/l303.exe)
 DipDrv:  MaxL=1.
 Leave Link  303 at Wed Sep  3 17:08:40 2025, MaxMem= 12348030976 cpu:               1.4 elap:               0.1
 (Enter /home/hhratchian/gaussian/gdv-20250101-j30+/gdv/l401.exe)
 Initial guess from the checkpoint file:  "H2O_B3LYP_genecp_q0_m1.chk"
 B after Tr=    -0.000000    0.000000   -0.000000
         Rot=    1.000000    0.000000   -0.000000    0.000000 Ang=   0.00 deg.
 AO Guess basis will be translated and rotated to current coordinates.
 JPrj=2 DoOrth=T DoCkMO=T.
 Initial guess orbital symmetries:
       Occupied  (A1) (A1) (B2) (A1) (B1)
       Virtual   (A1) (B2) (A1) (B1) (A1) (B2) (B2) (A1) (A2) (B1)
                 (A1) (B2) (A1) (B2) (B2) (A1) (A1) (A2) (B1) (A1)
                 (B1) (A1) (B1) (B2) (A2) (B2) (A1) (A1) (B2) (B1)
                 (B2) (A1) (A2) (B2) (A2) (A1) (B1) (A1) (B2) (B2)
                 (A1) (B1) (A2) (A1) (A1) (B1) (B2) (A1) (B2) (B1)
                 (A1) (B2) (A2) (B2) (A1) (B1) (A2) (A1) (B2) (B1)
                 (A2) (A1) (B1) (B2) (A1) (B2) (A2) (B2) (B2) (A1)
                 (B1) (A1) (A1) (B2) (B1) (A1) (B1) (B1) (A1) (A2)
                 (B2) (A2) (A1) (A1) (B2) (B2) (A1)
 The electronic state of the initial guess is 1-A1.
 Leave Link  401 at Wed Sep  3 17:08:40 2025, MaxMem= 12348030976 cpu:               2.8 elap:               0.1
 (Enter /home/hhratchian/gaussian/gdv-20250101-j30+/gdv/local/l502.exe)
 Keep R1 ints in memory in symmetry-blocked form, NReq=61574408.
 FoFCou: FMM=F IPFlag=           0 FMFlag=           0 FMFlg1=           0
         NFxFlg=           0 DoJE=F BraDBF=F KetDBF=F FulRan=T
         wScrn=  0.000000 ICntrl=       600 IOpCl=  0 I1Cent=           0 NGrid=           0
         NMat0=    1 NMatS0=   4278 NMatT0=    0 NMatD0=    1 NMtDS0=    0 NMtDT0=    0
 Petite list used in FoFCou.
 Closed shell SCF:
 Using DIIS extrapolation, IDIIS=    10.
 NGot= 12348030976 LenX= 12345655041 LenY= 12345643575
 Requested convergence on RMS density matrix=1.00D-08 within 128 cycles.
 Requested convergence on MAX density matrix=1.00D-06.
 Requested convergence on             energy=1.00D-06.
 Level shift goal  0.100 maximum shift  0.100.
 No special actions if energy rises.
 Dynamic level shift is on during FON iterations.
 
  Hrant - CycOpn.
 

 Cycle   1  Pass 1  IDiag  1:
 E= -76.4661923891070    
 DIIS: error= 3.32D-04 at cycle   1 NSaved=   1.
 NSaved= 1 IEnMin= 1 EnMin= -76.4661923891070     IErMin= 1 ErrMin= 3.32D-04
 ErrMax= 3.32D-04  0.00D+00 EMaxC= 1.00D+00 BMatC= 2.99D-06 BMatP= 2.99D-06
 Rises=F IDIUse=1 WtCom= 1.00D+00 WtEn= 0.00D+00
 Coeff-Com:  0.100D+01
 Coeff:      0.100D+01
 Gap=     0.299 Goal=     0.100 Shift=    0.000
 RMSDP=2.68D-05 MaxDP=5.14D-04              OVMax= 1.26D-03

 Cycle   2  Pass 1  IDiag  1:
 E= -76.4661979341068     Delta-E=       -0.000005545000 Rises=F Damp=F AM=F Ri=F Fa=F
 DIIS: error= 8.74D-05 at cycle   2 NSaved=   2.
 NSaved= 2 IEnMin= 2 EnMin= -76.4661979341068     IErMin= 2 ErrMin= 8.74D-05
 ErrMax= 8.74D-05  0.00D+00 EMaxC= 1.00D+00 BMatC= 1.71D-07 BMatP= 2.99D-06
 Rises=F IDIUse=1 WtCom= 1.00D+00 WtEn= 0.00D+00
 Coeff-Com:  0.550D-01 0.945D+00
 Coeff:      0.550D-01 0.945D+00
 Gap=     0.299 Goal=     0.100 Shift=    0.000
 RMSDP=6.48D-06 MaxDP=1.63D-04 DE=-5.54D-06 OVMax= 3.14D-04

 Cycle   3  Pass 1  IDiag  1:
 E= -76.4661978025078     Delta-E=        0.000000131599 Rises=F Damp=F AM=F Ri=F Fa=F
 DIIS: error= 1.24D-04 at cycle   3 NSaved=   3.
 NSaved= 3 IEnMin= 2 EnMin= -76.4661979341068     IErMin= 2 ErrMin= 8.74D-05
 ErrMax= 1.24D-04  0.00D+00 EMaxC= 1.00D+00 BMatC= 2.84D-07 BMatP= 1.71D-07
 Rises=F IDIUse=1 WtCom= 1.00D+00 WtEn= 0.00D+00
 Coeff-Com: -0.148D-01 0.573D+00 0.442D+00
 Coeff:     -0.148D-01 0.573D+00 0.442D+00
 Gap=     0.299 Goal=     0.100 Shift=    0.000
 RMSDP=3.50D-06 MaxDP=5.89D-05 DE= 1.32D-07 OVMax= 1.90D-04

 Cycle   4  Pass 1  IDiag  1:
 E= -76.4661981720801     Delta-E=       -0.000000369572 Rises=F Damp=F AM=F Ri=F Fa=F
 DIIS: error= 1.47D-05 at cycle   4 NSaved=   4.
 NSaved= 4 IEnMin= 4 EnMin= -76.4661981720801     IErMin= 4 ErrMin= 1.47D-05
 ErrMax= 1.47D-05  0.00D+00 EMaxC= 1.00D+00 BMatC= 4.10D-09 BMatP= 1.71D-07
 Rises=F IDIUse=1 WtCom= 1.00D+00 WtEn= 0.00D+00
 Coeff-Com: -0.741D-02 0.152D+00 0.167D+00 0.688D+00
 Coeff:     -0.741D-02 0.152D+00 0.167D+00 0.688D+00
 Gap=     0.299 Goal=     0.100 Shift=    0.000
 RMSDP=3.97D-07 MaxDP=6.77D-06 DE=-3.70D-07 OVMax= 2.27D-05

 Cycle   5  Pass 1  IDiag  1:
 E= -76.4661981773536     Delta-E=       -0.000000005274 Rises=F Damp=F AM=F Ri=F Fa=F
 DIIS: error= 5.81D-07 at cycle   5 NSaved=   5.
 NSaved= 5 IEnMin= 5 EnMin= -76.4661981773536     IErMin= 5 ErrMin= 5.81D-07
 ErrMax= 5.81D-07  0.00D+00 EMaxC= 1.00D+00 BMatC= 1.08D-11 BMatP= 4.10D-09
 Rises=F IDIUse=1 WtCom= 1.00D+00 WtEn= 0.00D+00
 Coeff-Com: -0.288D-04-0.695D-02-0.240D-02 0.379D-01 0.971D+00
 Coeff:     -0.288D-04-0.695D-02-0.240D-02 0.379D-01 0.971D+00
 Gap=     0.299 Goal=     0.100 Shift=    0.000
 RMSDP=4.75D-08 MaxDP=1.53D-06 DE=-5.27D-09 OVMax= 1.90D-06

 Cycle   6  Pass 1  IDiag  1:
 E= -76.4661981773690     Delta-E=       -0.000000000015 Rises=F Damp=F AM=F Ri=F Fa=F
 DIIS: error= 3.53D-08 at cycle   6 NSaved=   6.
 NSaved= 6 IEnMin= 6 EnMin= -76.4661981773690     IErMin= 6 ErrMin= 3.53D-08
 ErrMax= 3.53D-08  0.00D+00 EMaxC= 1.00D+00 BMatC= 1.98D-14 BMatP= 1.08D-11
 Rises=F IDIUse=1 WtCom= 1.00D+00 WtEn= 0.00D+00
 Coeff-Com:  0.414D-04-0.115D-02-0.823D-03-0.107D-02 0.251D-01 0.978D+00
 Coeff:      0.414D-04-0.115D-02-0.823D-03-0.107D-02 0.251D-01 0.978D+00
 Gap=     0.299 Goal=     0.100 Shift=    0.000
 RMSDP=2.76D-09 MaxDP=6.10D-08 DE=-1.53D-11 OVMax= 1.63D-07

 SCF Done:  E(RB3LYP) =  -76.4661981774     A.U. after    6 cycles
            NFock=  6  Conv=0.28D-08     -V/T= 2.0060
 KE=          76.012817 PE=        -198.977394 EE=          37.348398
 Leave Link  502 at Wed Sep  3 17:08:41 2025, MaxMem= 12348030976 cpu:              18.1 elap:               0.5
 (Enter /home/hhratchian/gaussian/gdv-20250101-j30+/gdv/l701.exe)
 ... and contract with generalized density number  0.
 Compute integral first derivatives.
   4 Symmetry operations used in ECPInt.
 ECPInt:  NShTT=     528 NPrTT=    1270 LenC2=     529 LenP2D=    1251.
 LDataN:  DoStor=T MaxTD1= 7 Len=  274
 Leave Link  701 at Wed Sep  3 17:08:41 2025, MaxMem= 12348030976 cpu:               5.2 elap:               0.2
 (Enter /home/hhratchian/gaussian/gdv-20250101-j30+/gdv/l702.exe)
 L702 exits ... SP integral derivatives will be done elsewhere.
 Leave Link  702 at Wed Sep  3 17:08:41 2025, MaxMem= 12348030976 cpu:               0.1 elap:               0.0
 (Enter /home/hhratchian/gaussian/gdv-20250101-j30+/gdv/l703.exe)
 Integral derivatives from FoFJK, PRISM(SPDF).
 Compute integral first derivatives, UseDBF=F ICtDFT=           0.
 Calling FoFJK, ICntrl=      2127 FMM=F ISym2X=1 I1Cent= 0 IOpClX= 0 NMat=1 NMatS=1 NMatT=0.
 FoFJK:  IHMeth= 1 ICntrl=    2127 DoSepK=F KAlg= 0 I1Cent=           0 FoldK=F
 IRaf=         0 NMat=       1 IRICut=       1 DoRegI=T DoRafI=F ISym2E= 1 IDoP0=0 IntGTp=1.
 FoFCou: FMM=F IPFlag=           0 FMFlag=      100000 FMFlg1=         800
         NFxFlg=           0 DoJE=F BraDBF=F KetDBF=F FulRan=T
         wScrn=  0.000000 ICntrl=      2127 IOpCl=  0 I1Cent=           0 NGrid=           0
         NMat0=    1 NMatS0=      1 NMatT0=    0 NMatD0=    1 NMtDS0=    0 NMtDT0=    0
 Petite list used in FoFCou.
 Leave Link  703 at Wed Sep  3 17:08:42 2025, MaxMem= 12348030976 cpu:              18.9 elap:               0.5
 (Enter /home/hhratchian/gaussian/gdv-20250101-j30+/gdv/l716.exe)
 Dipole        =-3.95834798D-17 8.88178420D-16-7.26749322D-01
 ***** Axes restored to original set *****
 -------------------------------------------------------------------
 Center     Atomic                   Forces (Hartrees/Bohr)
 Number     Number              X              Y              Z
 -------------------------------------------------------------------
      1        8          -0.000000000   -0.000000000   -0.000075580
      2        1           0.000068348    0.000000000    0.000037790
      3        1          -0.000068348    0.000000000    0.000037790
 -------------------------------------------------------------------
 Cartesian Forces:  Max     0.000075580 RMS     0.000044611
 Leave Link  716 at Wed Sep  3 17:08:42 2025, MaxMem= 12348030976 cpu:               1.2 elap:               0.1
 (Enter /home/hhratchian/gaussian/gdv-20250101-j30+/gdv/l103.exe)

 GradGradGradGradGradGradGradGradGradGradGradGradGradGradGradGradGradGrad
 Berny optimization.
 Using GEDIIS/GDIIS optimizer.
 FormGI is forming the generalized inverse of G from B-inverse, IUseBI=4.
 NTrRot=    -1 NTRed=     3 NAtoms=     3 NSkip=     0 NRank=     3 IsLin=F EigSml=7.8022D-01
 Internal  Forces:  Max     0.000077238 RMS     0.000064223
 Search for a local minimum.
 Step number   4 out of a maximum of   20
 All quantities printed in internal units (Hartrees-Bohrs-Radians)
 RMS Force = .64223D-04 SwitMx=.10000D-02 MixMth= 2
 Mixed Optimization -- En-DIIS/RFO-DIIS
 Swapping is turned off.
 Update second derivatives using D2CorX and points    1    2    3    4
 DE= -8.88D-06 DEPred=-8.92D-06 R= 9.95D-01
 TightC=F SS=  1.41D+00  RLast= 1.06D-02 DXNew= 7.2154D-01 3.1844D-02
 Trust test= 9.95D-01 RLast= 1.06D-02 DXMaxT set to 4.29D-01
 The second derivative matrix:
                          R1        R2        A1
           R1           0.63621
           R2          -0.03904   0.63621
           A1           0.03339   0.03339   0.15917
 ITU=  1  1  1  0
     Eigenvalues ---    0.15414   0.60220   0.67525
 En-DIIS/RFO-DIIS/Sim-DIIS IScMMF=       -3 using points:     4    3
 RFO step:  Lambda=-2.09682296D-08.
 NNeg= 0 NGDIIS= 2 SimSw=  2.50D-01 Rises=F DC= -8.88D-06 SmlDif=  1.00D-05
 NRisDI= 0 DoIntr=F SqrtH=F CThrHd= 10.0 CDAdj=  3.0
 RMS Error=  0.1118776148D-03 NUsed= 2 OKEnD=F EnDIS=F
 InvSVX:  RCond= 2.82D-05 Info=           0 Equed=N FErr=  9.01D-16 BErr=  3.68D-17
 DidBck=FF Rises=F RFO-DIIS coefs:    1.00651   -0.00651
 GrdOpt: GIC=T ITstSp=  0 NP=   4 DidLin=F DidDIS=T IDoGRo=0 IDoRot=0
         ISwap=0 XLin= 0.000 DXMaxT= 0.429
 Iteration  1 RMS(Cart)=  0.00006769 RMS(Int)=  0.00000000
 Iteration  2 RMS(Cart)=  0.00000000 RMS(Int)=  0.00000000
 ClnCor:  largest displacement from symmetrization is 2.09D-15 for atom     2.
 Variable       Old X    -DE/DX   Delta X   Delta X   Delta X     New X
                                 (Linear)    (Quad)   (Total)
    R1        1.81748   0.00008  -0.00000   0.00013   0.00012   1.81760
    R2        1.81748   0.00008  -0.00000   0.00013   0.00012   1.81760
    A1        1.83402   0.00002   0.00007   0.00001   0.00008   1.83410
         Item               Value     Threshold  Converged?
 Maximum Force            0.000077     0.000450     YES
 RMS     Force            0.000064     0.000300     YES
 Maximum Displacement     0.000143     0.001800     YES
 RMS     Displacement     0.000117     0.001200     YES
 Predicted change in Energy=-1.048411D-08
 Optimization completed.
    -- Stationary point found.
                           ----------------------------
                           !   Optimized Parameters   !
                           ! (Angstroms and Degrees)  !
 --------------------------                            --------------------------
 ! Name  Definition              Value          Derivative Info.                !
 --------------------------------------------------------------------------------
 ! R1    R(1,2)                  0.9618         -DE/DX =    0.0001              !
 ! R2    R(1,3)                  0.9618         -DE/DX =    0.0001              !
 ! A1    A(2,1,3)              105.0815         -DE/DX =    0.0                 !
 --------------------------------------------------------------------------------
 Lowest energy point so far.  Saving SCF results.
 Largest change from initial coordinates is atom    1       0.027 Angstoms.
 GradGradGradGradGradGradGradGradGradGradGradGradGradGradGradGradGradGrad

 Leave Link  103 at Wed Sep  3 17:08:42 2025, MaxMem= 12348030976 cpu:               2.4 elap:               0.1
 (Enter /home/hhratchian/gaussian/gdv-20250101-j30+/gdv/l202.exe)
                          Input orientation:                          
 ---------------------------------------------------------------------
 Center     Atomic      Atomic             Coordinates (Angstroms)
 Number     Number       Type             X           Y           Z
 ---------------------------------------------------------------------
      1          8           0       -0.000000    0.000000   -0.053774
      2          1           0        0.763438    0.000000    0.531171
      3          1           0       -0.763438   -0.000000    0.531171
 ---------------------------------------------------------------------
                    Distance matrix (angstroms):
                    1          2          3
     1  O    0.000000
     2  H    0.961768   0.000000
     3  H    0.961768   1.526877   0.000000
 Stoichiometry    H2O
 Framework group  C2V[C2(O),SGV(H2)]
 Deg. of freedom     2
 Full point group                 C2V     NOp   4
 RotChk:  IX=0 Diff= 1.29D-15
 Largest Abelian subgroup         C2V     NOp   4
 Largest concise Abelian subgroup C2      NOp   2
                         Standard orientation:                         
 ---------------------------------------------------------------------
 Center     Atomic      Atomic             Coordinates (Angstroms)
 Number     Number       Type             X           Y           Z
 ---------------------------------------------------------------------
      1          8           0        0.000000    0.000000    0.116989
      2          1           0       -0.000000    0.763438   -0.467956
      3          1           0       -0.000000   -0.763438   -0.467956
 ---------------------------------------------------------------------
 Rotational constants (GHZ):         825.1219603         430.1839327         282.7631192
 Leave Link  202 at Wed Sep  3 17:08:42 2025, MaxMem= 12348030976 cpu:               1.6 elap:               0.1
 (Enter /home/hhratchian/gaussian/gdv-20250101-j30+/gdv/l601.exe)
 Copying SCF densities to generalized density rwf, IOpCl= 0 IROHF=0.
 
 **********************************************************************
 
               Population analysis using the SCF Density.
 
 **********************************************************************
 
 Orbital symmetries:
       Occupied  (A1) (A1) (B2) (A1) (B1)
       Virtual   (A1) (B2) (A1) (B1) (A1) (B2) (B2) (A1) (A2) (B1)
                 (A1) (B2) (A1) (B2) (B2) (A1) (A1) (A2) (B1) (A1)
                 (B1) (A1) (B1) (B2) (A2) (B2) (A1) (A1) (B2) (B1)
                 (B2) (A1) (A2) (B2) (A2) (A1) (B1) (A1) (B2) (B2)
                 (A1) (B1) (A2) (A1) (A1) (B1) (B2) (A1) (B2) (B1)
                 (A1) (B2) (A2) (B2) (A1) (B1) (A2) (A1) (B2) (B1)
                 (A2) (B1) (A1) (B2) (A1) (B2) (A2) (B2) (B2) (A1)
                 (B1) (A1) (A1) (B2) (B1) (A1) (B1) (B1) (A1) (A2)
                 (B2) (A2) (A1) (A1) (B2) (B2) (A1)
 The electronic state is 1-A1.
 Alpha  occ. eigenvalues --      -19.14044      -1.02113      -0.54070      -0.39898      -0.32413
 Alpha virt. eigenvalues --       -0.02506       0.01919       0.07569       0.09538       0.10264
 Alpha virt. eigenvalues --        0.11484       0.15089       0.17010       0.19139       0.21994
 Alpha virt. eigenvalues --        0.22420       0.30706       0.33000       0.34773       0.47153
 Alpha virt. eigenvalues --        0.51977       0.56974       0.59061       0.59082       0.68024
 Alpha virt. eigenvalues --        0.70912       0.72881       0.76146       0.76298       0.78576
 Alpha virt. eigenvalues --        0.80622       0.81694       0.87789       0.88584       0.91189
 Alpha virt. eigenvalues --        0.98311       1.03644       1.04468       1.10405       1.32605
 Alpha virt. eigenvalues --        1.35871       1.38824       1.57177       1.61361       1.74027
 Alpha virt. eigenvalues --        1.85951       1.99081       2.04697       2.06120       2.12725
 Alpha virt. eigenvalues --        2.16383       2.17399       2.21221       2.41928       2.43204
 Alpha virt. eigenvalues --        2.48291       2.57091       2.61328       3.31490       3.41292
 Alpha virt. eigenvalues --        3.64790       3.71455       3.87735       3.94313       3.99519
 Alpha virt. eigenvalues --        4.06796       4.08177       4.08386       4.15363       4.30073
 Alpha virt. eigenvalues --        4.44350       4.80261       4.80960       4.89564       4.92212
 Alpha virt. eigenvalues --        5.11190       5.28131       5.71726       6.05668       6.24398
 Alpha virt. eigenvalues --        6.41991       6.64968       6.73319       6.79065       6.82322
 Alpha virt. eigenvalues --        6.83761       6.84149       7.02998       7.39593       7.40870
 Alpha virt. eigenvalues --        8.26060      14.91111
          Condensed to atoms (all electrons):
               1          2          3
     1  O    7.844243   0.255152   0.255152
     2  H    0.255152   0.562760   0.004814
     3  H    0.255152   0.004814   0.562760
 Mulliken charges:
               1
     1  O   -0.354548
     2  H    0.177274
     3  H    0.177274
 Sum of Mulliken charges=   0.00000
 Mulliken charges with hydrogens summed into heavy atoms:
               1
     1  O    0.000000
 Electronic spatial extent (au):  <R**2>=             20.0793
 Charge=             -0.0000 electrons
 Dipole moment (field-independent basis, Debye):
    X=             -0.0000    Y=             -0.0000    Z=             -1.8472  Tot=              1.8472
 Quadrupole moment (field-independent basis, Debye-Ang):
   XX=             -7.8029   YY=             -4.4691   ZZ=             -6.5069
   XY=              0.0000   XZ=              0.0000   YZ=              0.0000
 Traceless Quadrupole moment (field-independent basis, Debye-Ang):
   XX=             -1.5433   YY=              1.7905   ZZ=             -0.2473
   XY=              0.0000   XZ=              0.0000   YZ=              0.0000
 Octapole moment (field-independent basis, Debye-Ang**2):
  XXX=              0.0000  YYY=             -0.0000  ZZZ=             -0.9381  XYY=             -0.0000
  XXY=             -0.0000  XXZ=             -0.1962  XZZ=              0.0000  YZZ=             -0.0000
  YYZ=             -1.2885  XYZ=             -0.0000
 Hexadecapole moment (field-independent basis, Debye-Ang**3):
 XXXX=             -7.8024 YYYY=             -6.7740 ZZZZ=             -8.1702 XXXY=             -0.0000
 XXXZ=             -0.0000 YYYX=             -0.0000 YYYZ=              0.0000 ZZZX=             -0.0000
 ZZZY=              0.0000 XXYY=             -2.7635 XXZZ=             -2.7081 YYZZ=             -2.1973
 XXYZ=              0.0000 YYXZ=              0.0000 ZZXY=             -0.0000
 N-N=           9.149980 E-N=        -198.977394  KE=          76.012817
 Symmetry A1   KE=          67.815617
 Symmetry A2   KE=           0.000000
 Symmetry B1   KE=           4.516271
 Symmetry B2   KE=           3.680930
 No NMR shielding tensors so no spin-rotation constants.
 Leave Link  601 at Wed Sep  3 17:08:42 2025, MaxMem= 12348030976 cpu:               6.2 elap:               0.2
 (Enter /home/hhratchian/gaussian/gdv-20250101-j30+/gdv/local/l9999.exe)
 Unable to Open any file for archive entry.
 1\1\GINC-HMNODE009\FOpt\RB3LYP\Gen\H2O1\AABOUTAKA\03-Sep-2025\0\\#p B3
 LYP guess=read chkbasis geom=allcheck Opt Freq SCF=(fermi, novaracc) i
 nt=superfinegrid\\H2O — B3LYP/genecp q=0 m=1 [1/3: Stability]\\0,1\O
 ,0.,0.,-0.0537736643\H,0.7634382893,0.,0.5311708322\H,-0.7634382893,0.
 ,0.5311708322\\Version=ES64L-GDVRevJ.30+\State=1-A1\HF=-76.4661982\RMS
 D=2.763e-09\RMSF=4.461e-05\Dipole=0.,0.,0.7267493\Quadrupole=1.3312267
 ,-1.1473899,-0.1838369,0.,0.,0.\PG=C02V [C2(O1),SGV(H2)]\\@
 The archive entry for this job was punched.


 THERE IS NO SUBJECT, HOWEVER COMPLEX,
 WHICH, IF STUDIED WITH PATIENCE AND INTELLIGIENCE
 WILL NOT BECOME
 MORE COMPLEX
                        QUOTED BY D. GORDON ROHMAN
 Leave Link 9999 at Wed Sep  3 17:08:42 2025, MaxMem= 12348030976 cpu:               2.5 elap:               0.1
 Job cpu time:       0 days  0 hours  4 minutes 26.3 seconds.
 Elapsed time:       0 days  0 hours  0 minutes 10.9 seconds.
 File lengths (MBytes):  RWF=     38 Int=      0 D2E=      0 Chk=     18 Scr=      2
 Normal termination of Gaussian DV at Wed Sep  3 17:08:42 2025.
 (Enter /home/hhratchian/gaussian/gdv-20250101-j30+/gdv/local/l1.exe)
 Link1:  Proceeding to internal job step number  2.
 ------------------------------------------------------------------
 #P Geom=AllCheck Guess=TCheck SCRF=Check GenChk RB3LYP/ChkBas Freq
 ------------------------------------------------------------------
 1/10=4,29=7,30=1,38=1,40=1/1,3;
 2/12=2/2;
 3/5=7,6=2,11=2,14=-4,25=1,30=1,67=1,70=2,71=2,74=-5,75=-7,82=7,116=1,140=1,187=7/1,2,3;
 4/5=101/1;
 5/5=2,22=13,38=6,98=1/2;
 8/6=4,10=90,11=11/1;
 11/6=1,8=1,9=11,15=111,16=1/1,2,10;
 10/6=1/2;
 6/7=2,8=2,9=2,10=2,28=1/1;
 7/8=1,10=1,25=1/1,2,3,16;
 1/10=4,30=1/3;
 99//99;
 Leave Link    1 at Wed Sep  3 17:08:42 2025, MaxMem= 12348030976 cpu:               0.1 elap:               0.0
 (Enter /home/hhratchian/gaussian/gdv-20250101-j30+/gdv/local/l101.exe)
 
  Hrant - IAPOps =                         0
  Hrant - IAPOp1 =                         0
  Hrant - IAPOp2 =                         0
  Hrant - DoAP   =   F
 
 Structure from the checkpoint file:  "H2O_B3LYP_genecp_q0_m1.chk"
 ---------------------------------------------
 H2O — B3LYP/genecp q=0 m=1 [1/3: Stability]
 ---------------------------------------------
 Charge =     0 Multiplicity =     1
 Redundant internal coordinates found in file.  (GICs).
 O,0,0.,0.,-0.0537736643
 H,0,0.7634382893,0.,0.5311708322
 H,0,-0.7634382893,0.,0.5311708322
 
 Recover connectivity data from disk.
 Reading GIC definitions from chk.
 Skipping GIC derivative info from chk, if any.
 No input coordinate modifications requested.
 Forming B-matrix definitions.
 Forming B-matrix derivative definitions.
 ITRead=  0  0  0
 MicOpt= -1 -1 -1
 NAtoms=      3 NQM=        3 NQMF=       0 NMMI=      0 NMMIF=      0
                NMic=       0 NMicF=      0.
                    Isotopes and Nuclear Properties:
 (Nuclear quadrupole moments (NQMom) in fm**2, nuclear magnetic moments (NMagM)
  in nuclear magnetons)

  Atom         1           2           3
 IAtWgt=          16           1           1
 AtmWgt=  15.9949146   1.0078250   1.0078250
 NucSpn=           0           1           1
 AtZEff=    5.600000    1.000000    1.000000
 NQMom=    0.0000000   0.0000000   0.0000000
 NMagM=    0.0000000   2.7928460   2.7928460
 AtZNuc=   8.0000000   1.0000000   1.0000000
 Leave Link  101 at Wed Sep  3 17:08:42 2025, MaxMem= 12348030976 cpu:               1.6 elap:               0.3
 (Enter /home/hhratchian/gaussian/gdv-20250101-j30+/gdv/l103.exe)

 GradGradGradGradGradGradGradGradGradGradGradGradGradGradGradGradGradGrad
 Berny optimization.
 Initialization pass.
                           ----------------------------
                           !    Initial Parameters    !
                           ! (Angstroms and Degrees)  !
 --------------------------                            --------------------------
 ! Name  Definition              Value          Derivative Info.                !
 --------------------------------------------------------------------------------
 ! R1    R(1,2)                  0.9618         calculate D2E/DX2 analytically  !
 ! R2    R(1,3)                  0.9618         calculate D2E/DX2 analytically  !
 ! A1    A(2,1,3)              105.0815         calculate D2E/DX2 analytically  !
 --------------------------------------------------------------------------------
 Trust Radius=3.00D-01 FncErr=1.00D-07 GrdErr=1.00D-07 EigMax=2.50D+02 EigMin=1.00D-04
 Number of steps in this run=      2 maximum allowed number of steps=      2.
 GradGradGradGradGradGradGradGradGradGradGradGradGradGradGradGradGradGrad

 Leave Link  103 at Wed Sep  3 17:08:42 2025, MaxMem= 12348030976 cpu:               0.1 elap:               0.0
 (Enter /home/hhratchian/gaussian/gdv-20250101-j30+/gdv/l202.exe)
                          Input orientation:                          
 ---------------------------------------------------------------------
 Center     Atomic      Atomic             Coordinates (Angstroms)
 Number     Number       Type             X           Y           Z
 ---------------------------------------------------------------------
      1          8           0       -0.000000    0.000000   -0.053774
      2          1           0        0.763438    0.000000    0.531171
      3          1           0       -0.763438   -0.000000    0.531171
 ---------------------------------------------------------------------
                    Distance matrix (angstroms):
                    1          2          3
     1  O    0.000000
     2  H    0.961768   0.000000
     3  H    0.961768   1.526877   0.000000
 Stoichiometry    H2O
 Framework group  C2V[C2(O),SGV(H2)]
 Deg. of freedom     2
 Full point group                 C2V     NOp   4
 RotChk:  IX=0 Diff= 7.71D-16
 Largest Abelian subgroup         C2V     NOp   4
 Largest concise Abelian subgroup C2      NOp   2
                         Standard orientation:                         
 ---------------------------------------------------------------------
 Center     Atomic      Atomic             Coordinates (Angstroms)
 Number     Number       Type             X           Y           Z
 ---------------------------------------------------------------------
      1          8           0        0.000000    0.000000    0.116989
      2          1           0       -0.000000    0.763438   -0.467956
      3          1           0       -0.000000   -0.763438   -0.467956
 ---------------------------------------------------------------------
 Rotational constants (GHZ):         825.1219603         430.1839327         282.7631192
 Leave Link  202 at Wed Sep  3 17:08:43 2025, MaxMem= 12348030976 cpu:               1.9 elap:               0.1
 (Enter /home/hhratchian/gaussian/gdv-20250101-j30+/gdv/local/l301.exe)
 Basis read from chk: "H2O_B3LYP_genecp_q0_m1.chk" (5D, 7F)
 Pseudo-potential data read from chk file.
 There are    42 symmetry adapted cartesian basis functions of A1  symmetry.
 There are    12 symmetry adapted cartesian basis functions of A2  symmetry.
 There are    20 symmetry adapted cartesian basis functions of B1  symmetry.
 There are    31 symmetry adapted cartesian basis functions of B2  symmetry.
 There are    35 symmetry adapted basis functions of A1  symmetry.
 There are    12 symmetry adapted basis functions of A2  symmetry.
 There are    18 symmetry adapted basis functions of B1  symmetry.
 There are    27 symmetry adapted basis functions of B2  symmetry.
    92 basis functions,   126 primitive gaussians,   105 cartesian basis functions
     5 alpha electrons        5 beta electrons
       nuclear repulsion energy         9.1499803128 Hartrees.
 IExCor=      4002 DFT=T Ex+Corr=B3LYP ScaHFX=  0.200000
 ScaDFX=  0.800000  0.720000  1.000000  0.810000  1.000000  0.000000
 ScaDFX=  0.000000  0.000000  0.000000  0.000000  0.000000  0.000000
 Grid=SuperFine IRanWt=     -1 IRanGd=            0 ICorTp=0 IEDCtl=  2004
 NAtoms=    3 NActive=    3 NUniq=    2 SFac= 2.25D+00 NAtFMM=   60 NAOKFM=F Big=F
 Integral buffers will be    131072 words long.
 Raffenetti 2 integral format.
 Two-electron integral symmetry is turned on.
 No density basis found on file 200724.
 Leave Link  301 at Wed Sep  3 17:08:43 2025, MaxMem= 12348030976 cpu:               1.3 elap:               0.1
 (Enter /home/hhratchian/gaussian/gdv-20250101-j30+/gdv/l302.exe)
 NPDir=0 NMtPBC=     1 NCelOv=     1 NCel=       1 NClECP=     1 NCelD=      1
         NCelK=      1 NCelE2=     1 NClLst=     1 CellRange=     0.0.
 One-electron integrals computed using PRISM.
 One-electron integral symmetry used in STVInt
   4 Symmetry operations used in ECPInt.
 ECPInt:  NShTT=     528 NPrTT=    1270 LenC2=     529 LenP2D=    1251.
 LDataN:  DoStor=T MaxTD1= 6 Len=  172
 NBasis=    92 RedAO= T EigKep=  3.88D-04  NBF=    35    12    18    27
 NBsUse=    92 1.00D-06 EigRej= -1.00D+00 NBFU=    35    12    18    27
 Precomputing XC quadrature grid using
 IXCGrd=   9 Grid=SuperFine IRanWt=          -1 IRanGd=           0 AccXCQ= 0.00D+00.
 Generated NRdTot=       0 NPtTot=      198790 NUsed=           0 NTot=          64
 NSgBfM=   105   105   105   105   105 MxSgAt=     3 MxSgA2=     3 SizInc=   0.000
 NMBTot=     1926 MaxBatPerAtom=      131 MaxMicBPerAtom=      654 NBfPt=            16895740.
 Leave Link  302 at Wed Sep  3 17:08:43 2025, MaxMem= 12348030976 cpu:               4.9 elap:               0.2
 (Enter /home/hhratchian/gaussian/gdv-20250101-j30+/gdv/l303.exe)
 DipDrv:  MaxL=1.
 Leave Link  303 at Wed Sep  3 17:08:43 2025, MaxMem= 12348030976 cpu:               1.4 elap:               0.1
 (Enter /home/hhratchian/gaussian/gdv-20250101-j30+/gdv/l401.exe)
 Initial guess from the checkpoint file:  "H2O_B3LYP_genecp_q0_m1.chk"
 B after Tr=     0.000000    0.000000   -0.000000
         Rot=    1.000000   -0.000000   -0.000000   -0.000000 Ang=   0.00 deg.
 AO Guess basis will be translated and rotated to current coordinates.
 JPrj=2 DoOrth=T DoCkMO=T.
 Initial guess orbital symmetries:
       Occupied  (A1) (A1) (B2) (A1) (B1)
       Virtual   (A1) (B2) (A1) (B1) (A1) (B2) (B2) (A1) (A2) (B1)
                 (A1) (B2) (A1) (B2) (B2) (A1) (A1) (A2) (B1) (A1)
                 (B1) (A1) (B1) (B2) (A2) (B2) (A1) (A1) (B2) (B1)
                 (B2) (A1) (A2) (B2) (A2) (A1) (B1) (A1) (B2) (B2)
                 (A1) (B1) (A2) (A1) (A1) (B1) (B2) (A1) (B2) (B1)
                 (A1) (B2) (A2) (B2) (A1) (B1) (A2) (A1) (B2) (B1)
                 (A2) (B1) (A1) (B2) (A1) (B2) (A2) (B2) (B2) (A1)
                 (B1) (A1) (A1) (B2) (B1) (A1) (B1) (B1) (A1) (A2)
                 (B2) (A2) (A1) (A1) (B2) (B2) (A1)
 The electronic state of the initial guess is 1-A1.
 Leave Link  401 at Wed Sep  3 17:08:43 2025, MaxMem= 12348030976 cpu:               1.7 elap:               0.1
 (Enter /home/hhratchian/gaussian/gdv-20250101-j30+/gdv/local/l502.exe)
 Keep R1 ints in memory in symmetry-blocked form, NReq=61574408.
 FoFCou: FMM=F IPFlag=           0 FMFlag=           0 FMFlg1=           0
         NFxFlg=           0 DoJE=F BraDBF=F KetDBF=F FulRan=T
         wScrn=  0.000000 ICntrl=       600 IOpCl=  0 I1Cent=           0 NGrid=           0
         NMat0=    1 NMatS0=   4278 NMatT0=    0 NMatD0=    1 NMtDS0=    0 NMtDT0=    0
 Petite list used in FoFCou.
 Closed shell SCF:
 Using DIIS extrapolation, IDIIS=    10.
 NGot= 12348030976 LenX= 12345655041 LenY= 12345643575
 Requested convergence on RMS density matrix=1.00D-08 within 128 cycles.
 Requested convergence on MAX density matrix=1.00D-06.
 Requested convergence on             energy=1.00D-06.
 Level shift goal  0.100 maximum shift  0.100.
 No special actions if energy rises.
 Dynamic level shift is on during FON iterations.
 
  Hrant - CycOpn.
 

 Cycle   1  Pass 1  IDiag  1:
 E= -76.4661981773691    
 DIIS: error= 4.47D-09 at cycle   1 NSaved=   1.
 NSaved= 1 IEnMin= 1 EnMin= -76.4661981773691     IErMin= 1 ErrMin= 4.47D-09
 ErrMax= 4.47D-09  0.00D+00 EMaxC= 1.00D+00 BMatC= 3.57D-16 BMatP= 3.57D-16
 Rises=F IDIUse=1 WtCom= 1.00D+00 WtEn= 0.00D+00
 Coeff-Com:  0.100D+01
 Coeff:      0.100D+01
 Gap=     0.299 Goal=     0.100 Shift=    0.000
 RMSDP=3.45D-10 MaxDP=6.72D-09              OVMax= 1.73D-08

 SCF Done:  E(RB3LYP) =  -76.4661981774     A.U. after    1 cycles
            NFock=  1  Conv=0.34D-09     -V/T= 2.0060
 KE=          76.012817 PE=        -198.977394 EE=          37.348399
 Leave Link  502 at Wed Sep  3 17:08:43 2025, MaxMem= 12348030976 cpu:              10.9 elap:               0.3
 (Enter /home/hhratchian/gaussian/gdv-20250101-j30+/gdv/l801.exe)
 DoSCS=F DFT=T ScalE2(SS,OS)=  1.000000  1.000000
 Range of M.O.s used for correlation:     1    92
 NBasis=    92 NAE=     5 NBE=     5 NFC=     0 NFV=     0
 NROrb=     92 NOA=     5 NOB=     5 NVA=    87 NVB=    87

 **** Warning!!: The largest alpha MO coefficient is  0.15747426D+02

 Leave Link  801 at Wed Sep  3 17:08:43 2025, MaxMem= 12348030976 cpu:               1.3 elap:               0.1
 (Enter /home/hhratchian/gaussian/gdv-20250101-j30+/gdv/l1101.exe)
 Using compressed storage, NAtomX=     3.
 Will process      4 centers per pass.
   4 Symmetry operations used in ECPInt.
 ECPInt:  NShTT=     528 NPrTT=    1270 LenC2=     529 LenP2D=    1251.
 LDataN:  DoStor=T MaxTD1= 7 Len=  274
 Leave Link 1101 at Wed Sep  3 17:08:44 2025, MaxMem= 12348030976 cpu:               9.6 elap:               0.2
 (Enter /home/hhratchian/gaussian/gdv-20250101-j30+/gdv/l1102.exe)
 Symmetrizing basis deriv contribution to polar:
 IMax=3 JMax=2 DiffMx= 0.00D+00
 Leave Link 1102 at Wed Sep  3 17:08:44 2025, MaxMem= 12348030976 cpu:               1.6 elap:               0.1
 (Enter /home/hhratchian/gaussian/gdv-20250101-j30+/gdv/l1110.exe)
 Forming Gx(P) for the SCF density, NAtomX=     3.
 Integral derivatives from FoFJK, PRISM(SPDF).
 Do as many integral derivatives as possible in FoFJK.
 G2DrvN: MDV=   12348030509.
 G2DrvN: will do     4 centers at a time, making    1 passes.
 Calling FoFCou, ICntrl=  3107 FMM=F I1Cent=   0 AccDes= 0.00D+00.
 FoFJK:  IHMeth= 1 ICntrl=    3107 DoSepK=F KAlg= 0 I1Cent=           0 FoldK=F
 IRaf=         0 NMat=       1 IRICut=       1 DoRegI=T DoRafI=F ISym2E= 1 IDoP0=0 IntGTp=1.
 FoFCou: FMM=F IPFlag=           0 FMFlag=      100000 FMFlg1=           0
         NFxFlg=           0 DoJE=F BraDBF=F KetDBF=F FulRan=T
         wScrn=  0.000000 ICntrl=      3107 IOpCl=  0 I1Cent=           0 NGrid=           0
         NMat0=    1 NMatS0=      1 NMatT0=    0 NMatD0=    1 NMtDS0=    0 NMtDT0=    0
 Petite list used in FoFCou.
 End of G2Drv FD prop file    721 does not exist.
 End of G2Drv FD prop file    722 does not exist.
 End of G2Drv FD prop file    788 does not exist.
 End of G2Drv FD prop file    804 does not exist.
 Leave Link 1110 at Wed Sep  3 17:08:44 2025, MaxMem= 12348030976 cpu:              32.4 elap:               0.7
 (Enter /home/hhratchian/gaussian/gdv-20250101-j30+/gdv/l1002.exe)
 Minotr:  Closed shell wavefunction.
          IDoAtm=111
          Direct CPHF calculation.
          Differentiating once with respect to electric field.
                with respect to dipole field.
          Differentiating once with respect to nuclear coordinates.
          Using symmetry in CPHF.
          Requested convergence is 1.0D-08 RMS, and 1.0D-07 maximum.
          Secondary convergence is 1.0D-12 RMS, and 1.0D-12 maximum.
          NewPWx=T KeepS1=F KeepF1=F KeepIn=T MapXYZ=F SortEE=F KeepMc=T.
         1580 words used for storage of precomputed grid.
 Keep R1 ints in memory in symmetry-blocked form, NReq=61218347.
 FoFCou: FMM=F IPFlag=           0 FMFlag=           0 FMFlg1=           0
         NFxFlg=           0 DoJE=F BraDBF=F KetDBF=F FulRan=T
         wScrn=  0.000000 ICntrl=       600 IOpCl=  0 I1Cent=           0 NGrid=           0
         NMat0=    1 NMatS0=   4278 NMatT0=    0 NMatD0=    1 NMtDS0=    0 NMtDT0=    0
 Petite list used in FoFCou.
          MDV=   12348030976 using Grid=Fine.
          Solving linear equations simultaneously, MaxMat=       0.
          There are     9 degrees of freedom in the 1st order CPHF.  IDoFFX=4 NUNeed=     9.
      9 vectors produced by pass  0 Test12= 4.83D-15 1.11D-08 XBig12= 5.04D+00 1.28D+00.
 AX will form     9 AO Fock derivatives at one time.
      9 vectors produced by pass  1 Test12= 4.83D-15 1.11D-08 XBig12= 9.19D-01 3.51D-01.
      9 vectors produced by pass  2 Test12= 4.83D-15 1.11D-08 XBig12= 1.14D-02 4.19D-02.
      9 vectors produced by pass  3 Test12= 4.83D-15 1.11D-08 XBig12= 4.02D-05 1.93D-03.
      9 vectors produced by pass  4 Test12= 4.83D-15 1.11D-08 XBig12= 1.32D-07 1.11D-04.
      5 vectors produced by pass  5 Test12= 4.83D-15 1.11D-08 XBig12= 1.60D-10 4.53D-06.
      2 vectors produced by pass  6 Test12= 4.83D-15 1.11D-08 XBig12= 1.09D-13 8.68D-08.
 InvSVY:  IOpt=1 It=  1 EMax= 4.44D-16
 Solved reduced A of dimension    52 with     9 vectors.
 FullF1:  Do perturbations      1 to       9.
 Isotropic polarizability for W=    0.000000        9.81 Bohr**3.
 End of Minotr FD prop file    721 does not exist.
 End of Minotr FD prop file    722 does not exist.
 End of Minotr FD prop file    788 does not exist.
 End of Minotr FD prop file    804 does not exist.
 Leave Link 1002 at Wed Sep  3 17:08:46 2025, MaxMem= 12348030976 cpu:              80.5 elap:               1.6
 (Enter /home/hhratchian/gaussian/gdv-20250101-j30+/gdv/l601.exe)
 Copying SCF densities to generalized density rwf, IOpCl= 0 IROHF=0.
 
 **********************************************************************
 
               Population analysis using the SCF Density.
 
 **********************************************************************
 
 Orbital symmetries:
       Occupied  (A1) (A1) (B2) (A1) (B1)
       Virtual   (A1) (B2) (A1) (B1) (A1) (B2) (B2) (A1) (A2) (B1)
                 (A1) (B2) (A1) (B2) (B2) (A1) (A1) (A2) (B1) (A1)
                 (B1) (A1) (B1) (B2) (A2) (B2) (A1) (A1) (B2) (B1)
                 (B2) (A1) (A2) (B2) (A2) (A1) (B1) (A1) (B2) (B2)
                 (A1) (B1) (A2) (A1) (A1) (B1) (B2) (A1) (B2) (B1)
                 (A1) (B2) (A2) (B2) (A1) (B1) (A2) (A1) (B2) (B1)
                 (A2) (B1) (A1) (B2) (A1) (B2) (A2) (B2) (B2) (A1)
                 (B1) (A1) (A1) (B2) (B1) (A1) (B1) (B1) (A1) (A2)
                 (B2) (A2) (A1) (A1) (B2) (B2) (A1)
 The electronic state is 1-A1.
 Alpha  occ. eigenvalues --      -19.14044      -1.02113      -0.54070      -0.39898      -0.32413
 Alpha virt. eigenvalues --       -0.02506       0.01919       0.07569       0.09538       0.10264
 Alpha virt. eigenvalues --        0.11484       0.15089       0.17010       0.19139       0.21994
 Alpha virt. eigenvalues --        0.22420       0.30706       0.33000       0.34773       0.47153
 Alpha virt. eigenvalues --        0.51977       0.56974       0.59061       0.59082       0.68024
 Alpha virt. eigenvalues --        0.70912       0.72881       0.76146       0.76298       0.78576
 Alpha virt. eigenvalues --        0.80622       0.81694       0.87789       0.88584       0.91189
 Alpha virt. eigenvalues --        0.98311       1.03644       1.04468       1.10405       1.32605
 Alpha virt. eigenvalues --        1.35871       1.38824       1.57177       1.61361       1.74027
 Alpha virt. eigenvalues --        1.85951       1.99081       2.04697       2.06120       2.12725
 Alpha virt. eigenvalues --        2.16383       2.17399       2.21221       2.41928       2.43204
 Alpha virt. eigenvalues --        2.48291       2.57091       2.61328       3.31490       3.41292
 Alpha virt. eigenvalues --        3.64790       3.71455       3.87735       3.94313       3.99519
 Alpha virt. eigenvalues --        4.06796       4.08177       4.08386       4.15363       4.30073
 Alpha virt. eigenvalues --        4.44350       4.80261       4.80960       4.89564       4.92212
 Alpha virt. eigenvalues --        5.11190       5.28131       5.71726       6.05668       6.24398
 Alpha virt. eigenvalues --        6.41991       6.64968       6.73319       6.79065       6.82322
 Alpha virt. eigenvalues --        6.83761       6.84149       7.02998       7.39593       7.40870
 Alpha virt. eigenvalues --        8.26060      14.91111
          Condensed to atoms (all electrons):
               1          2          3
     1  O    7.844243   0.255152   0.255152
     2  H    0.255152   0.562760   0.004814
     3  H    0.255152   0.004814   0.562760
 Mulliken charges:
               1
     1  O   -0.354548
     2  H    0.177274
     3  H    0.177274
 Sum of Mulliken charges=  -0.00000
 Mulliken charges with hydrogens summed into heavy atoms:
               1
     1  O   -0.000000
 APT charges:
               1
     1  O   -0.505422
     2  H    0.252711
     3  H    0.252711
 Sum of APT charges=  -0.00000
 APT charges with hydrogens summed into heavy atoms:
               1
     1  O   -0.000000
 Electronic spatial extent (au):  <R**2>=             20.0793
 Charge=              0.0000 electrons
 Dipole moment (field-independent basis, Debye):
    X=             -0.0000    Y=              0.0000    Z=             -1.8472  Tot=              1.8472
 Quadrupole moment (field-independent basis, Debye-Ang):
   XX=             -7.8029   YY=             -4.4691   ZZ=             -6.5069
   XY=              0.0000   XZ=              0.0000   YZ=             -0.0000
 Traceless Quadrupole moment (field-independent basis, Debye-Ang):
   XX=             -1.5433   YY=              1.7905   ZZ=             -0.2473
   XY=              0.0000   XZ=              0.0000   YZ=             -0.0000
 Octapole moment (field-independent basis, Debye-Ang**2):
  XXX=              0.0000  YYY=              0.0000  ZZZ=             -0.9381  XYY=             -0.0000
  XXY=             -0.0000  XXZ=             -0.1962  XZZ=              0.0000  YZZ=              0.0000
  YYZ=             -1.2885  XYZ=             -0.0000
 Hexadecapole moment (field-independent basis, Debye-Ang**3):
 XXXX=             -7.8024 YYYY=             -6.7740 ZZZZ=             -8.1702 XXXY=             -0.0000
 XXXZ=             -0.0000 YYYX=             -0.0000 YYYZ=             -0.0000 ZZZX=             -0.0000
 ZZZY=              0.0000 XXYY=             -2.7635 XXZZ=             -2.7081 YYZZ=             -2.1973
 XXYZ=              0.0000 YYXZ=              0.0000 ZZXY=             -0.0000
 N-N=           9.149980 E-N=        -198.977394  KE=          76.012817
 Symmetry A1   KE=          67.815617
 Symmetry A2   KE=           0.000000
 Symmetry B1   KE=           4.516270
 Symmetry B2   KE=           3.680930
 No NMR shielding tensors so no spin-rotation constants.
 Leave Link  601 at Wed Sep  3 17:08:46 2025, MaxMem= 12348030976 cpu:               4.3 elap:               0.1
 (Enter /home/hhratchian/gaussian/gdv-20250101-j30+/gdv/l701.exe)
 ... and contract with generalized density number  0.
 Compute integral second derivatives.
   4 Symmetry operations used in ECPInt.
 ECPInt:  NShTT=     528 NPrTT=    1270 LenC2=     529 LenP2D=    1251.
 LDataN:  DoStor=T MaxTD1= 8 Len=  415
 Leave Link  701 at Wed Sep  3 17:08:47 2025, MaxMem= 12348030976 cpu:               8.9 elap:               0.2
 (Enter /home/hhratchian/gaussian/gdv-20250101-j30+/gdv/l702.exe)
 L702 exits ... SP integral derivatives will be done elsewhere.
 Leave Link  702 at Wed Sep  3 17:08:47 2025, MaxMem= 12348030976 cpu:               1.3 elap:               0.1
 (Enter /home/hhratchian/gaussian/gdv-20250101-j30+/gdv/l703.exe)
 Integral derivatives from FoFJK, PRISM(SPDF).
 Compute integral second derivatives, UseDBF=F ICtDFT=           0.
 Calling FoFJK, ICntrl=    100127 FMM=F ISym2X=1 I1Cent= 0 IOpClX= 0 NMat=1 NMatS=1 NMatT=0.
 FoFJK:  IHMeth= 1 ICntrl=  100127 DoSepK=F KAlg= 0 I1Cent=           0 FoldK=F
 IRaf=         0 NMat=       1 IRICut=       1 DoRegI=T DoRafI=F ISym2E= 1 IDoP0=0 IntGTp=1.
 FoFCou: FMM=F IPFlag=           0 FMFlag=      100000 FMFlg1=         800
         NFxFlg=           0 DoJE=F BraDBF=F KetDBF=F FulRan=T
         wScrn=  0.000000 ICntrl=    100127 IOpCl=  0 I1Cent=           0 NGrid=           0
         NMat0=    1 NMatS0=      1 NMatT0=    0 NMatD0=    1 NMtDS0=    0 NMtDT0=    0
 Petite list used in FoFCou.
 Leave Link  703 at Wed Sep  3 17:08:48 2025, MaxMem= 12348030976 cpu:              60.6 elap:               1.2
 (Enter /home/hhratchian/gaussian/gdv-20250101-j30+/gdv/l716.exe)
 Dipole        =-3.95834745D-17 9.05235173D-16-7.26749268D-01
 Polarizability= 9.40962475D+00-1.33777119D-14 1.02670110D+01
                 2.41367235D-13-5.41455769D-13 9.74215970D+00
 Full mass-weighted force constant matrix:
 Low frequencies ---  -35.5852  -34.3515  -32.1974   -0.0006    0.0015    0.0019
 Low frequencies --- 1627.1511 3797.5287 3900.1478
 Diagonal vibrational polarizability:
        0.0000000       0.1115123       0.7788156
 Harmonic frequencies (cm**-1), IR intensities (KM/Mole), Raman scattering
 activities (A**4/AMU), depolarization ratios for plane and unpolarized
 incident light, reduced masses (AMU), force constants (mDyne/A),
 and normal coordinates:
                      1                      2                      3
                     A1                     A1                     B2
 Frequencies --   1627.1511              3797.5287              3900.1478
 Red. masses --      1.0834                 1.0445                 1.0824
 Frc consts  --      1.6901                 8.8747                 9.7009
 IR Inten    --     75.7698                 4.6455                63.0306
  Atom  AN      X      Y      Z        X      Y      Z        X      Y      Z
     1   8    -0.00  -0.00  -0.07     0.00  -0.00   0.05    -0.00  -0.07  -0.00
     2   1     0.00   0.42   0.56     0.00   0.59  -0.39    -0.00   0.56  -0.43
     3   1     0.00  -0.42   0.56    -0.00  -0.59  -0.39     0.00   0.56   0.43

 -------------------
 - Thermochemistry -
 -------------------
 Temperature 298.150 Kelvin.  Pressure 1.00000 Atm.
 Atom     1 has atomic number  8 and mass  15.99491
 Atom     2 has atomic number  1 and mass   1.00783
 Atom     3 has atomic number  1 and mass   1.00783
 Molecular mass:    18.01056 amu.
 Principal axes and moments of inertia in atomic units:
                                 1                 2                 3
     Eigenvalues --            2.187242          4.195278          6.382520
           X                   0.000000          0.000000          1.000000
           Y                   1.000000          0.000000         -0.000000
           Z                  -0.000000          1.000000         -0.000000
 This molecule is an asymmetric top.
 Rotational symmetry number  2.
 Rotational temperatures (Kelvin)     39.59961    20.64557    13.57049
 Rotational constants (GHZ):         825.12196   430.18393   282.76312
 Zero-point vibrational energy      55774.9 (Joules/Mol)
                                   13.33051 (Kcal/Mol)
 Vibrational temperatures:   2341.11  5463.80  5611.44
          (Kelvin)
 
 Zero-point correction=                           0.021244 (Hartree/Particle)
 Thermal correction to Energy=                    0.024079
 Thermal correction to Enthalpy=                  0.025023
 Thermal correction to Gibbs Free Energy=         0.003602
 Sum of electronic and zero-point Energies=            -76.444955
 Sum of electronic and thermal Energies=               -76.442119
 Sum of electronic and thermal Enthalpies=             -76.441175
 Sum of electronic and thermal Free Energies=          -76.462596
 
                     E (Thermal)             CV                S
                      KCal/Mol        Cal/Mol-Kelvin    Cal/Mol-Kelvin
 Total                   15.110              6.009             45.085
 Electronic               0.000              0.000              0.000
 Translational            0.889              2.981             34.608
 Rotational               0.889              2.981             10.470
 Vibrational             13.332              0.048              0.007
                       Q            Log10(Q)             Ln(Q)
 Total Bot       0.220405D-01         -1.656778         -3.814873
 Total V=0       0.130183D+09          8.114554         18.684452
 Vib (Bot)       0.169370D-09         -9.771164        -22.498935
 Vib (V=0)       0.100039D+01          0.000169          0.000389
 Electronic      0.100000D+01          0.000000          0.000000
 Translational   0.300431D+07          6.477745         14.915559
 Rotational      0.433152D+02          1.636640          3.768504
 
                                            H2O — B3LYP/genecp q=0 m=1 [1/3: St
 ability]
                                                             IR Spectrum
 
     3   3                                                                      1                                                    
     9   7                                                                      6                                                    
     0   9                                                                      2                                                    
     0   8                                                                      7                                                    
 
     X   X                                                                      X                                                    
     X                                                                          X                                                    
     X                                                                          X                                                    
     X                                                                          X                                                    
     X                                                                          X                                                    
     X                                                                          X                                                    
     X                                                                          X                                                    
     X                                                                          X                                                    
     X                                                                          X                                                    
     X                                                                          X                                                    
     X                                                                          X                                                    
     X                                                                          X                                                    
     X                                                                          X                                                    
     X                                                                          X                                                    
     X                                                                          X                                                    
     X                                                                          X                                                    
     X                                                                          X                                                    
                                                                                X                                                    
                                                                                X                                                    
                                                                                X                                                    
 
 ***** Axes restored to original set *****
 -------------------------------------------------------------------
 Center     Atomic                   Forces (Hartrees/Bohr)
 Number     Number              X              Y              Z
 -------------------------------------------------------------------
      1        8           0.000000000    0.000000000   -0.000075578
      2        1           0.000068344    0.000000000    0.000037789
      3        1          -0.000068344   -0.000000000    0.000037789
 -------------------------------------------------------------------
 Cartesian Forces:  Max     0.000075578 RMS     0.000044609
 Force constants in Cartesian coordinates: 
                1             2             3             4             5 
      1  0.677299D+00
      2  0.000000D+00 -0.702267D-04
      3  0.000000D+00  0.000000D+00  0.446263D+00
      4 -0.338649D+00  0.000000D+00 -0.199679D+00  0.369199D+00
      5  0.000000D+00  0.351134D-04  0.000000D+00  0.000000D+00 -0.417049D-04
      6 -0.259498D+00  0.000000D+00 -0.223132D+00  0.229589D+00  0.000000D+00
      7 -0.338649D+00  0.000000D+00  0.199679D+00 -0.305500D-01  0.000000D+00
      8  0.000000D+00  0.351134D-04  0.000000D+00  0.000000D+00  0.659154D-05
      9  0.259498D+00  0.000000D+00 -0.223132D+00 -0.299091D-01  0.000000D+00
                6             7             8             9 
      6  0.210955D+00
      7  0.299091D-01  0.369199D+00
      8  0.000000D+00  0.000000D+00 -0.417049D-04
      9  0.121770D-01 -0.229589D+00  0.000000D+00  0.210955D+00
 FormGI is forming the generalized inverse of G from B-inverse, IUseBI=4.
 NTrRot=    -1 NTRed=     3 NAtoms=     3 NSkip=     0 NRank=     3 IsLin=F EigSml=7.8022D-01
 Force constants in internal coordinates: 
                1             2             3 
      1  0.532345D+00
      2 -0.512570D-02  0.532345D+00
      3  0.302662D-01  0.302662D-01  0.158066D+00
 Leave Link  716 at Wed Sep  3 17:08:48 2025, MaxMem= 12348030976 cpu:               1.3 elap:               0.1
 (Enter /home/hhratchian/gaussian/gdv-20250101-j30+/gdv/l103.exe)

 GradGradGradGradGradGradGradGradGradGradGradGradGradGradGradGradGradGrad
 Berny optimization.
 Internal  Forces:  Max     0.000077233 RMS     0.000064219
 Search for a local minimum.
 Step number   1 out of a maximum of    2
 All quantities printed in internal units (Hartrees-Bohrs-Radians)
 Second derivative matrix not updated -- analytic derivatives used.
 The second derivative matrix:
                          R1        R2        A1
           R1           0.53235
           R2          -0.00513   0.53235
           A1           0.03027   0.03027   0.15807
 ITU=  0
     Eigenvalues ---    0.15317   0.53212   0.53747
 Angle between quadratic step and forces=  10.50 degrees.
 Linear search not attempted -- first point.
 GrdOpt: GIC=T ITstSp=  0 NP=   1 DidLin=F DidDIS=F IDoGRo=0 IDoRot=0
         ISwap=1 XLin= 0.000 DXMaxT= 0.300
 Iteration  1 RMS(Cart)=  0.00007406 RMS(Int)=  0.00000000
 Iteration  2 RMS(Cart)=  0.00000000 RMS(Int)=  0.00000000
 ClnCor:  largest displacement from symmetrization is 8.31D-15 for atom     3.
 Variable       Old X    -DE/DX   Delta X   Delta X   Delta X     New X
                                 (Linear)    (Quad)   (Total)
    R1        1.81748   0.00008   0.00000   0.00014   0.00014   1.81762
    R2        1.81748   0.00008   0.00000   0.00014   0.00014   1.81762
    A1        1.83402   0.00002   0.00000   0.00008   0.00008   1.83410
         Item               Value     Threshold  Converged?
 Maximum Force            0.000077     0.000450     YES
 RMS     Force            0.000064     0.000300     YES
 Maximum Displacement     0.000156     0.001800     YES
 RMS     Displacement     0.000128     0.001200     YES
 Predicted change in Energy=-1.179241D-08
 Optimization completed.
    -- Stationary point found.
                           ----------------------------
                           !   Optimized Parameters   !
                           ! (Angstroms and Degrees)  !
 --------------------------                            --------------------------
 ! Name  Definition              Value          Derivative Info.                !
 --------------------------------------------------------------------------------
 ! R1    R(1,2)                  0.9618         -DE/DX =    0.0001              !
 ! R2    R(1,3)                  0.9618         -DE/DX =    0.0001              !
 ! A1    A(2,1,3)              105.0815         -DE/DX =    0.0                 !
 --------------------------------------------------------------------------------
 GradGradGradGradGradGradGradGradGradGradGradGradGradGradGradGradGradGrad

 Leave Link  103 at Wed Sep  3 17:08:48 2025, MaxMem= 12348030976 cpu:               1.3 elap:               0.1
 (Enter /home/hhratchian/gaussian/gdv-20250101-j30+/gdv/local/l9999.exe)

 ----------------------------------------------------------------------

 Electric dipole moment (input orientation):
 (Debye = 10**-18 statcoulomb cm , SI units = C m)
                  (au)            (Debye)         (10**-30 SI)
   Tot        0.726749D+00      0.184721D+01      0.616164D+01
   x          0.000000D+00      0.000000D+00      0.000000D+00
   y          0.000000D+00      0.000000D+00      0.000000D+00
   z          0.726749D+00      0.184721D+01      0.616164D+01

 Dipole polarizability, Alpha (input orientation).
 (esu units = cm**3 , SI units = C**2 m**2 J**-1)
 Alpha(0;0):
               (au)            (10**-24 esu)      (10**-40 SI)
   iso        0.980627D+01      0.145314D+01      0.161683D+01
   aniso      0.748719D+00      0.110949D+00      0.123447D+00
   xx         0.102670D+02      0.152141D+01      0.169280D+01
   yx         0.000000D+00      0.000000D+00      0.000000D+00
   yy         0.940962D+01      0.139436D+01      0.155144D+01
   zx         0.000000D+00      0.000000D+00      0.000000D+00
   zy         0.000000D+00      0.000000D+00      0.000000D+00
   zz         0.974216D+01      0.144364D+01      0.160627D+01

 ----------------------------------------------------------------------

 Dipole orientation:
     8          0.00000000         -0.00000000         -0.10161750
     1          1.44268928          0.00000000          1.00376740
     1         -1.44268928         -0.00000000          1.00376740

 Electric dipole moment (dipole orientation):
 (Debye = 10**-18 statcoulomb cm , SI units = C m)
                  (au)            (Debye)         (10**-30 SI)
   Tot        0.726749D+00      0.184721D+01      0.616164D+01
   x          0.000000D+00      0.000000D+00      0.000000D+00
   y          0.000000D+00      0.000000D+00      0.000000D+00
   z          0.726749D+00      0.184721D+01      0.616164D+01

 Dipole polarizability, Alpha (dipole orientation).
 (esu units = cm**3 , SI units = C**2 m**2 J**-1)
 Alpha(0;0):
               (au)            (10**-24 esu)      (10**-40 SI)
   iso        0.980627D+01      0.145314D+01      0.161683D+01
   aniso      0.748719D+00      0.110949D+00      0.123447D+00
   xx         0.102670D+02      0.152141D+01      0.169280D+01
   yx         0.000000D+00      0.000000D+00      0.000000D+00
   yy         0.940962D+01      0.139436D+01      0.155144D+01
   zx         0.000000D+00      0.000000D+00      0.000000D+00
   zy         0.000000D+00      0.000000D+00      0.000000D+00
   zz         0.974216D+01      0.144364D+01      0.160627D+01

 ----------------------------------------------------------------------
 Unable to Open any file for archive entry.
 1\1\GINC-HMNODE009\Freq\RB3LYP\Gen\H2O1\AABOUTAKA\03-Sep-2025\0\\#P Ge
 om=AllCheck Guess=TCheck SCRF=Check GenChk RB3LYP/ChkBas Freq\\H2O —
  B3LYP/genecp q=0 m=1 [1/3: Stability]\\0,1\O,0.,0.,-0.0537736643\H,0.
 7634382893,0.,0.5311708322\H,-0.7634382893,0.,0.5311708322\\Version=ES
 64L-GDVRevJ.30+\State=1-A1\HF=-76.4661982\RMSD=3.445e-10\RMSF=4.461e-0
 5\ZeroPoint=0.0212435\Thermal=0.024079\ETot=-76.4421192\HTot=-76.44117
 5\GTot=-76.4625962\Dipole=0.,0.,0.7267493\DipoleDeriv=-0.5011234,0.,0.
 ,0.,-0.6574619,0.,0.,0.,-0.3576795,0.2505617,0.,-0.0745132,0.,0.328731
 ,0.,-0.0598933,0.,0.1788397,0.2505617,0.,0.0745132,0.,0.328731,0.,0.05
 98933,0.,0.1788397\Polar=10.267011,0.,9.4096248,0.,0.,9.7421597\Quadru
 pole=1.3312267,-1.1473899,-0.1838369,0.,0.,0.\PG=C02V [C2(O1),SGV(H2)]
 \NImag=0\\0.67729881,0.,-0.00007023,0.,0.,0.44626321,-0.33864940,0.,-0
 .19967944,0.36919938,0.,0.00003511,0.,0.,-0.00004170,-0.25949773,0.,-0
 .22313161,0.22958858,0.,0.21095456,-0.33864940,0.,0.19967944,-0.030549
 98,0.,0.02990915,0.36919938,0.,0.00003511,0.,0.,0.00000659,0.,0.,-0.00
 004170,0.25949773,0.,-0.22313161,-0.02990915,0.,0.01217705,-0.22958858
 ,0.,0.21095456\\0.,0.,0.00007558,-0.00006834,0.,-0.00003779,0.00006834
 ,0.,-0.00003779\\\@
 The archive entry for this job was punched.


 A MAN THINKING OR WORKING IS ALWAYS ALONE, 
 LET HIM BE WHERE HE WILL.

                                    -- THOREAU
 Job cpu time:       0 days  0 hours  3 minutes 49.2 seconds.
 Elapsed time:       0 days  0 hours  0 minutes  5.5 seconds.
 File lengths (MBytes):  RWF=     38 Int=      0 D2E=      0 Chk=     19 Scr=      2
 Normal termination of Gaussian DV at Wed Sep  3 17:08:48 2025.
 Initial command:
 /home/hhratchian/gaussian/gdv-20250101-j30+/gdv/local/l1.exe "/scratch/aaboutaka/1590300/Gau-3235675.inp" -scrdir="/scratch/aaboutaka/1590300/"
 Default is to use a total of  56 processors:
                               56 via shared-memory
                                1 via Linda
 Entering Link 1 = /home/hhratchian/gaussian/gdv-20250101-j30+/gdv/local/l1.exe PID=   3240410.
  
 Copyright (c) 1988-2024, Gaussian, Inc.  All Rights Reserved.
  
 This is the private, development version of
 the Gaussian(R) DV system of programs. It is based on
 the Gaussian(R) 16 system (copyright 2016, Gaussian, Inc.),
 the Gaussian(R) 09 system (copyright 2009, Gaussian, Inc.),
 the Gaussian(R) 03 system (copyright 2003, Gaussian, Inc.),
 the Gaussian(R) 98 system (copyright 1998, Gaussian, Inc.),
 the Gaussian(R) 94 system (copyright 1995, Gaussian, Inc.),
 the Gaussian 92(TM) system (copyright 1992, Gaussian, Inc.),
 the Gaussian 90(TM) system (copyright 1990, Gaussian, Inc.),
 the Gaussian 88(TM) system (copyright 1988, Gaussian, Inc.),
 the Gaussian 86(TM) system (copyright 1986, Carnegie Mellon
 University), and the Gaussian 82(TM) system (copyright 1983,
 Carnegie Mellon University). Gaussian is a federally registered
 trademark of Gaussian, Inc.
  
 This software contains proprietary and confidential information,
 including trade secrets, belonging to Gaussian, Inc.
  
 This software is provided under written license and may be
 used, copied, transmitted, or stored only in accord with that
 written license.
  
 The following legend is applicable only to US Government
 contracts under FAR:
  
                    RESTRICTED RIGHTS LEGEND
  
 Use, reproduction and disclosure by the US Government is
 subject to restrictions as set forth in subparagraphs (a)
 and (c) of the Commercial Computer Software - Restricted
 Rights clause in FAR 52.227-19.
  
 Gaussian, Inc.
 340 Quinnipiac St., Bldg. 40, Wallingford CT 06492
  
  
 ---------------------------------------------------------------
 Warning -- This program may not be used in any manner that
 competes with the business of Gaussian, Inc. or will provide
 assistance to any competitor of Gaussian, Inc.  The licensee
 of this program is prohibited from giving any competitor of
 Gaussian, Inc. access to this program.  By using this program,
 the user acknowledges that Gaussian, Inc. is engaged in the
 business of creating and licensing software in the field of
 computational chemistry and represents and warrants to the
 licensee that it is not a competitor of Gaussian, Inc. and that
 it will not use this program in any manner prohibited above.
 ---------------------------------------------------------------
  

 Cite this work as:
 Gaussian Development Version, Revision J.30+,
 M. J. Frisch, G. W. Trucks, G. Scalmani, J. R. Cheeseman, X. Li, 
 J. Bloino, B. G. Janesko, A. V. Marenich, J. Zheng, F. Lipparini, 
 A. Jenkins, A. Liu, H. Liu, H. B. Schlegel, G. E. Scuseria, 
 M. A. Robb, V. Barone, G. A. Petersson, H. Nakatsuji, B. Mennucci, 
 C. Adamo, N. Rega, M. Caricato, H. P. Hratchian, J. V. Ortiz, 
 F. Pawlowski, A. F. Izmaylov, H. Hu, C. Liao, J. L. Sonnenberg, 
 D. Williams-Young, F. Ding, R. Gomperts, F. Egidi, J. Goings, 
 B. Peng, A. Petrone, T. Henderson, D. Ranasinghe, V. G. Zakrzewski, 
 J. Gao, G. Zheng, W. Liang, M. Hada, M. Ehara, K. Toyota, R. Fukuda, 
 J. Hasegawa, M. Ishida, T. Nakajima, Y. Honda, O. Kitao, H. Nakai, 
 T. Vreven, K. Throssell, J. A. Montgomery, Jr., J. E. Peralta, 
 F. Ogliaro, M. J. Bearpark, J. J. Heyd, E. N. Brothers, K. N. Kudin, 
 V. N. Staroverov, T. A. Keith, R. Kobayashi, J. Normand, 
 K. Raghavachari, A. P. Rendell, J. C. Burant, S. S. Iyengar, 
 M. Cossi, J. M. Millam, M. Klene, R. Cammi, R. L. Martin, O. Farkas, 
 J. B. Foresman, and D. J. Fox, Gaussian, Inc., Wallingford CT, 2024.
 
 *******************************************
 Gaussian DV:  ES64L-GDVRevJ.30+ 18-Dec-2024
                  3-Sep-2025 
 *******************************************
 %chk=H2O_B3LYP_genecp_q0_m1.chk
 -----------------------------------------------------
 #p B3LYP stable=opt guess=read chkbasis geom=allcheck
 -----------------------------------------------------
 1/29=7,38=1,172=1/1;
 2/12=2/2;
 3/5=7,6=2,11=2,14=-4,25=1,30=1,67=1,74=-5,116=-2/1,2,3;
 4/5=1/1;
 5/5=2,38=6/2;
 6/7=2,8=2,9=2,10=2,28=1/1;
 8/6=1,10=90,11=11/1;
 9/8=-3,42=1,46=1/14;
 5/5=2,8=3,17=40,38=6/8(-2);
 6/7=2,8=2,9=2,10=2,28=1/1;
 99/5=1,9=1/99;
 Leave Link    1 at Wed Sep  3 17:08:48 2025, MaxMem=           0 cpu:               2.4 elap:               0.1
 (Enter /home/hhratchian/gaussian/gdv-20250101-j30+/gdv/local/l101.exe)
 
  Hrant - IAPOps =                         0
  Hrant - IAPOp1 =                         0
  Hrant - IAPOp2 =                         0
  Hrant - DoAP   =   F
 
 Structure from the checkpoint file:  "H2O_B3LYP_genecp_q0_m1.chk"
 ---------------------------------------------
 H2O — B3LYP/genecp q=0 m=1 [1/3: Stability]
 ---------------------------------------------
 Charge =     0 Multiplicity =     1
 Redundant internal coordinates found in file.  (GICs).
 O,0,0.,0.,-0.0537736643
 H,0,0.7634382893,0.,0.5311708322
 H,0,-0.7634382893,0.,0.5311708322
 
 Recover connectivity data from disk.
 Reading GIC definitions from chk.
 Reading GIC derivative info from chk.
 ITRead=  0  0  0
 MicOpt= -1 -1 -1
                           ----------------------------
                           !    Current Parameters    !
                           ! (Angstroms and Degrees)  !
 --------------------------                            --------------------------
 ! Name  Definition              Value                                          !
 --------------------------------------------------------------------------------
 ! R1    R(1,2)                  0.9618                                         !
 ! R2    R(1,3)                  0.9618                                         !
 ! A1    A(2,1,3)              105.0815                                         !
 --------------------------------------------------------------------------------
 NAtoms=      3 NQM=        3 NQMF=       0 NMMI=      0 NMMIF=      0
                NMic=       0 NMicF=      0.
                    Isotopes and Nuclear Properties:
 (Nuclear quadrupole moments (NQMom) in fm**2, nuclear magnetic moments (NMagM)
  in nuclear magnetons)

  Atom         1           2           3
 IAtWgt=          16           1           1
 AtmWgt=  15.9949146   1.0078250   1.0078250
 NucSpn=           0           1           1
 AtZEff=    5.600000    1.000000    1.000000
 NQMom=    0.0000000   0.0000000   0.0000000
 NMagM=    0.0000000   2.7928460   2.7928460
 AtZNuc=   8.0000000   1.0000000   1.0000000
 Leave Link  101 at Wed Sep  3 17:08:48 2025, MaxMem= 12348030976 cpu:               2.8 elap:               0.3
 (Enter /home/hhratchian/gaussian/gdv-20250101-j30+/gdv/l202.exe)
                          Input orientation:                          
 ---------------------------------------------------------------------
 Center     Atomic      Atomic             Coordinates (Angstroms)
 Number     Number       Type             X           Y           Z
 ---------------------------------------------------------------------
      1          8           0       -0.000000    0.000000   -0.053774
      2          1           0        0.763438    0.000000    0.531171
      3          1           0       -0.763438   -0.000000    0.531171
 ---------------------------------------------------------------------
                    Distance matrix (angstroms):
                    1          2          3
     1  O    0.000000
     2  H    0.961768   0.000000
     3  H    0.961768   1.526877   0.000000
 Stoichiometry    H2O
 Framework group  C2V[C2(O),SGV(H2)]
 Deg. of freedom     2
 Full point group                 C2V     NOp   4
 RotChk:  IX=0 Diff= 9.46D-16
 Largest Abelian subgroup         C2V     NOp   4
 Largest concise Abelian subgroup C2      NOp   2
                         Standard orientation:                         
 ---------------------------------------------------------------------
 Center     Atomic      Atomic             Coordinates (Angstroms)
 Number     Number       Type             X           Y           Z
 ---------------------------------------------------------------------
      1          8           0        0.000000   -0.000000    0.116989
      2          1           0       -0.000000    0.763438   -0.467956
      3          1           0       -0.000000   -0.763438   -0.467956
 ---------------------------------------------------------------------
 Rotational constants (GHZ):         825.1219603         430.1839327         282.7631192
 Leave Link  202 at Wed Sep  3 17:08:49 2025, MaxMem= 12348030976 cpu:               2.6 elap:               0.1
 (Enter /home/hhratchian/gaussian/gdv-20250101-j30+/gdv/local/l301.exe)
 Basis read from chk: "H2O_B3LYP_genecp_q0_m1.chk" (5D, 7F)
 Pseudo-potential data read from chk file.
 There are    42 symmetry adapted cartesian basis functions of A1  symmetry.
 There are    12 symmetry adapted cartesian basis functions of A2  symmetry.
 There are    20 symmetry adapted cartesian basis functions of B1  symmetry.
 There are    31 symmetry adapted cartesian basis functions of B2  symmetry.
 There are    35 symmetry adapted basis functions of A1  symmetry.
 There are    12 symmetry adapted basis functions of A2  symmetry.
 There are    18 symmetry adapted basis functions of B1  symmetry.
 There are    27 symmetry adapted basis functions of B2  symmetry.
    92 basis functions,   126 primitive gaussians,   105 cartesian basis functions
     5 alpha electrons        5 beta electrons
       nuclear repulsion energy         9.1499803128 Hartrees.
 IExCor=      4002 DFT=T Ex+Corr=B3LYP ScaHFX=  0.200000
 ScaDFX=  0.800000  0.720000  1.000000  0.810000  1.000000  0.000000
 ScaDFX=  0.000000  0.000000  0.000000  0.000000  0.000000  0.000000
 Grid=UltraFine IRanWt=     -1 IRanGd=            0 ICorTp=0 IEDCtl=  2004
 NAtoms=    3 NActive=    3 NUniq=    2 SFac= 2.25D+00 NAtFMM=   60 NAOKFM=F Big=F
 Integral buffers will be    131072 words long.
 Raffenetti 2 integral format.
 Two-electron integral symmetry is turned on.
 No density basis found on file 200724.
 Leave Link  301 at Wed Sep  3 17:08:49 2025, MaxMem= 12348030976 cpu:               0.2 elap:               0.0
 (Enter /home/hhratchian/gaussian/gdv-20250101-j30+/gdv/l302.exe)
 NPDir=0 NMtPBC=     1 NCelOv=     1 NCel=       1 NClECP=     1 NCelD=      1
         NCelK=      1 NCelE2=     1 NClLst=     1 CellRange=     0.0.
 One-electron integrals computed using PRISM.
 One-electron integral symmetry used in STVInt
   4 Symmetry operations used in ECPInt.
 ECPInt:  NShTT=     528 NPrTT=    1270 LenC2=     529 LenP2D=    1251.
 LDataN:  DoStor=T MaxTD1= 6 Len=  172
 NBasis=    92 RedAO= T EigKep=  3.88D-04  NBF=    35    12    18    27
 NBsUse=    92 1.00D-06 EigRej= -1.00D+00 NBFU=    35    12    18    27
 Precomputing XC quadrature grid using
 IXCGrd=   9 Grid=UltraFine IRanWt=          -1 IRanGd=           0 AccXCQ= 0.00D+00.
 Generated NRdTot=       0 NPtTot=       73615 NUsed=           0 NTot=          64
 NSgBfM=   105   105   105   105   105 MxSgAt=     3 MxSgA2=     3 SizInc=   0.000
 NMBTot=      984 MaxBatPerAtom=       87 MaxMicBPerAtom=      337 NBfPt=             6221892.
 Leave Link  302 at Wed Sep  3 17:08:49 2025, MaxMem= 12348030976 cpu:               7.9 elap:               0.2
 (Enter /home/hhratchian/gaussian/gdv-20250101-j30+/gdv/l303.exe)
 DipDrv:  MaxL=1.
 Leave Link  303 at Wed Sep  3 17:08:49 2025, MaxMem= 12348030976 cpu:               3.4 elap:               0.1
 (Enter /home/hhratchian/gaussian/gdv-20250101-j30+/gdv/l401.exe)
 Initial guess from the checkpoint file:  "H2O_B3LYP_genecp_q0_m1.chk"
 B after Tr=     0.000000   -0.000000    0.000000
         Rot=    1.000000    0.000000   -0.000000   -0.000000 Ang=   0.00 deg.
 AO Guess basis will be translated and rotated to current coordinates.
 JPrj=2 DoOrth=T DoCkMO=T.
 Initial guess orbital symmetries:
       Occupied  (A1) (A1) (B2) (A1) (B1)
       Virtual   (A1) (B2) (A1) (B1) (A1) (B2) (B2) (A1) (A2) (B1)
                 (A1) (B2) (A1) (B2) (B2) (A1) (A1) (A2) (B1) (A1)
                 (B1) (A1) (B1) (B2) (A2) (B2) (A1) (A1) (B2) (B1)
                 (B2) (A1) (A2) (B2) (A2) (A1) (B1) (A1) (B2) (B2)
                 (A1) (B1) (A2) (A1) (A1) (B1) (B2) (A1) (B2) (B1)
                 (A1) (B2) (A2) (B2) (A1) (B1) (A2) (A1) (B2) (B1)
                 (A2) (B1) (A1) (B2) (A1) (B2) (A2) (B2) (B2) (A1)
                 (B1) (A1) (A1) (B2) (B1) (A1) (B1) (B1) (A1) (A2)
                 (B2) (A2) (A1) (A1) (B2) (B2) (A1)
 The electronic state of the initial guess is 1-A1.
 Leave Link  401 at Wed Sep  3 17:08:49 2025, MaxMem= 12348030976 cpu:               1.9 elap:               0.1
 (Enter /home/hhratchian/gaussian/gdv-20250101-j30+/gdv/local/l502.exe)
 Keep R1 ints in memory in symmetry-blocked form, NReq=61352984.
 FoFCou: FMM=F IPFlag=           0 FMFlag=           0 FMFlg1=           0
         NFxFlg=           0 DoJE=F BraDBF=F KetDBF=F FulRan=T
         wScrn=  0.000000 ICntrl=       600 IOpCl=  0 I1Cent=           0 NGrid=           0
         NMat0=    1 NMatS0=   4278 NMatT0=    0 NMatD0=    1 NMtDS0=    0 NMtDT0=    0
 Petite list used in FoFCou.
 Closed shell SCF:
 Using DIIS extrapolation, IDIIS=  1040.
 NGot= 12348030976 LenX= 12345655041 LenY= 12345643575
 Requested convergence on RMS density matrix=1.00D-08 within 128 cycles.
 Requested convergence on MAX density matrix=1.00D-06.
 Requested convergence on             energy=1.00D-06.
 No special actions if energy rises.
 
  Hrant - CycOpn.
 

 Cycle   1  Pass 1  IDiag  1:
 E= -76.4661982407968    
 DIIS: error= 2.14D-08 at cycle   1 NSaved=   1.
 NSaved= 1 IEnMin= 1 EnMin= -76.4661982407968     IErMin= 1 ErrMin= 2.14D-08
 ErrMax= 2.14D-08  0.00D+00 EMaxC= 1.00D-01 BMatC= 8.11D-15 BMatP= 8.11D-15
 Rises=F IDIUse=1 WtCom= 1.00D+00 WtEn= 0.00D+00
 Coeff-Com:  0.100D+01
 Coeff:      0.100D+01
 Gap=     0.299 Goal=   None    Shift=    0.000
 RMSDP=1.09D-08 MaxDP=2.34D-07              OVMax= 5.17D-08

 Cycle   2  Pass 1  IDiag  1:
 E= -76.4661982407972     Delta-E=       -0.000000000000 Rises=F Damp=F AM=F Ri=F Fa=F
 DIIS: error= 8.14D-09 at cycle   2 NSaved=   2.
 NSaved= 2 IEnMin= 2 EnMin= -76.4661982407972     IErMin= 2 ErrMin= 8.14D-09
 ErrMax= 8.14D-09  0.00D+00 EMaxC= 1.00D-01 BMatC= 1.14D-15 BMatP= 8.11D-15
 Rises=F IDIUse=1 WtCom= 1.00D+00 WtEn= 0.00D+00
 Coeff-Com:  0.144D+00 0.856D+00
 Coeff:      0.144D+00 0.856D+00
 Gap=     0.299 Goal=   None    Shift=    0.000
 RMSDP=6.92D-10 MaxDP=1.39D-08 DE=-4.55D-13 OVMax= 2.55D-08

 SCF Done:  E(RB3LYP) =  -76.4661982408     A.U. after    2 cycles
            NFock=  2  Conv=0.69D-09     -V/T= 2.0060
 KE=          76.012817 PE=        -198.977394 EE=          37.348399
 Leave Link  502 at Wed Sep  3 17:08:49 2025, MaxMem= 12348030976 cpu:              12.7 elap:               0.4
 (Enter /home/hhratchian/gaussian/gdv-20250101-j30+/gdv/l601.exe)
 Copying SCF densities to generalized density rwf, IOpCl= 0 IROHF=0.
 
 **********************************************************************
 
               Population analysis using the SCF Density.
 
 **********************************************************************
 
 Orbital symmetries:
       Occupied  (A1) (A1) (B2) (A1) (B1)
       Virtual   (A1) (B2) (A1) (B1) (A1) (B2) (B2) (A1) (A2) (B1)
                 (A1) (B2) (A1) (B2) (B2) (A1) (A1) (A2) (B1) (A1)
                 (B1) (A1) (B1) (B2) (A2) (B2) (A1) (A1) (B2) (B1)
                 (B2) (A1) (A2) (B2) (A2) (A1) (B1) (A1) (B2) (B2)
                 (A1) (B1) (A2) (A1) (A1) (B1) (B2) (A1) (B2) (B1)
                 (A1) (B2) (A2) (B2) (A1) (B1) (A2) (A1) (B2) (B1)
                 (A2) (B1) (A1) (B2) (A1) (B2) (A2) (B2) (B2) (A1)
                 (B1) (A1) (A1) (B2) (B1) (A1) (B1) (B1) (A1) (A2)
                 (B2) (A2) (A1) (A1) (B2) (B2) (A1)
 The electronic state is 1-A1.
 Alpha  occ. eigenvalues --      -19.14044      -1.02113      -0.54070      -0.39898      -0.32413
 Alpha virt. eigenvalues --       -0.02506       0.01919       0.07569       0.09538       0.10264
 Alpha virt. eigenvalues --        0.11484       0.15089       0.17010       0.19139       0.21994
 Alpha virt. eigenvalues --        0.22420       0.30706       0.33000       0.34773       0.47153
 Alpha virt. eigenvalues --        0.51977       0.56974       0.59061       0.59082       0.68024
 Alpha virt. eigenvalues --        0.70912       0.72881       0.76146       0.76298       0.78576
 Alpha virt. eigenvalues --        0.80622       0.81694       0.87789       0.88584       0.91189
 Alpha virt. eigenvalues --        0.98311       1.03644       1.04468       1.10405       1.32605
 Alpha virt. eigenvalues --        1.35871       1.38824       1.57177       1.61361       1.74027
 Alpha virt. eigenvalues --        1.85951       1.99081       2.04697       2.06120       2.12725
 Alpha virt. eigenvalues --        2.16383       2.17399       2.21221       2.41928       2.43204
 Alpha virt. eigenvalues --        2.48291       2.57091       2.61328       3.31490       3.41292
 Alpha virt. eigenvalues --        3.64790       3.71455       3.87735       3.94313       3.99519
 Alpha virt. eigenvalues --        4.06796       4.08177       4.08386       4.15363       4.30073
 Alpha virt. eigenvalues --        4.44350       4.80261       4.80960       4.89564       4.92212
 Alpha virt. eigenvalues --        5.11190       5.28131       5.71726       6.05668       6.24398
 Alpha virt. eigenvalues --        6.41991       6.64968       6.73319       6.79065       6.82322
 Alpha virt. eigenvalues --        6.83761       6.84149       7.02998       7.39593       7.40870
 Alpha virt. eigenvalues --        8.26060      14.91111
          Condensed to atoms (all electrons):
               1          2          3
     1  O    7.844245   0.255152   0.255152
     2  H    0.255152   0.562760   0.004814
     3  H    0.255152   0.004814   0.562760
 Mulliken charges:
               1
     1  O   -0.354548
     2  H    0.177274
     3  H    0.177274
 Sum of Mulliken charges=  -0.00000
 Mulliken charges with hydrogens summed into heavy atoms:
               1
     1  O   -0.000000
 Electronic spatial extent (au):  <R**2>=             20.0793
 Charge=              0.0000 electrons
 Dipole moment (field-independent basis, Debye):
    X=             -0.0000    Y=             -0.0000    Z=             -1.8472  Tot=              1.8472
 Quadrupole moment (field-independent basis, Debye-Ang):
   XX=             -7.8029   YY=             -4.4691   ZZ=             -6.5069
   XY=              0.0000   XZ=              0.0000   YZ=             -0.0000
 Traceless Quadrupole moment (field-independent basis, Debye-Ang):
   XX=             -1.5433   YY=              1.7905   ZZ=             -0.2473
   XY=              0.0000   XZ=              0.0000   YZ=             -0.0000
 Octapole moment (field-independent basis, Debye-Ang**2):
  XXX=              0.0000  YYY=              0.0000  ZZZ=             -0.9381  XYY=             -0.0000
  XXY=              0.0000  XXZ=             -0.1962  XZZ=              0.0000  YZZ=             -0.0000
  YYZ=             -1.2885  XYZ=             -0.0000
 Hexadecapole moment (field-independent basis, Debye-Ang**3):
 XXXX=             -7.8024 YYYY=             -6.7740 ZZZZ=             -8.1702 XXXY=             -0.0000
 XXXZ=             -0.0000 YYYX=             -0.0000 YYYZ=              0.0000 ZZZX=             -0.0000
 ZZZY=              0.0000 XXYY=             -2.7635 XXZZ=             -2.7081 YYZZ=             -2.1973
 XXYZ=              0.0000 YYXZ=              0.0000 ZZXY=             -0.0000
 N-N=           9.149980 E-N=        -198.977393  KE=          76.012817
 Symmetry A1   KE=          67.815617
 Symmetry A2   KE=           0.000000
 Symmetry B1   KE=           4.516270
 Symmetry B2   KE=           3.680930
 No NMR shielding tensors so no spin-rotation constants.
 Leave Link  601 at Wed Sep  3 17:08:50 2025, MaxMem= 12348030976 cpu:               7.7 elap:               0.2
 (Enter /home/hhratchian/gaussian/gdv-20250101-j30+/gdv/l801.exe)
 DoSCS=F DFT=T ScalE2(SS,OS)=  1.000000  1.000000
 Range of M.O.s used for correlation:     1    92
 NBasis=    92 NAE=     5 NBE=     5 NFC=     0 NFV=     0
 NROrb=     92 NOA=     5 NOB=     5 NVA=    87 NVB=    87

 **** Warning!!: The largest alpha MO coefficient is  0.15747430D+02

 Leave Link  801 at Wed Sep  3 17:08:50 2025, MaxMem= 12348030976 cpu:               0.1 elap:               0.0
 (Enter /home/hhratchian/gaussian/gdv-20250101-j30+/gdv/l914.exe)
 RHF ground state
 Doing stability rather than CIS.
 DoSCS=F DFT=T ScalE2(SS,OS)=  1.000000  1.000000
   ScalD2(USS,UOS,TSS,TOS,w)=  1.000000  1.000000  1.000000  1.000000  1.000000
 Keep R1 and R2 ints in memory in symmetry-blocked form, NReq=124134203.
 FoFCou: FMM=F IPFlag=           0 FMFlag=           0 FMFlg1=           0
         NFxFlg=           0 DoJE=F BraDBF=F KetDBF=F FulRan=T
         wScrn=  0.000000 ICntrl=       600 IOpCl=  0 I1Cent=           0 NGrid=           0
         NMat0=    1 NMatS0=   4278 NMatT0=    0 NMatD0=    1 NMtDS0=    0 NMtDT0=    0
 Petite list used in FoFCou.
 MDV= 12348030976 DFT=T IDoStb=1 Mixed=T DoRPA=F DoScal=F NonHer=F
 Making orbital integer symmetry assigments:
 Orbital symmetries:
       Occupied  (A1) (A1) (B2) (A1) (B1)
       Virtual   (A1) (B2) (A1) (B1) (A1) (B2) (B2) (A1) (A2) (B1)
                 (A1) (B2) (A1) (B2) (B2) (A1) (A1) (A2) (B1) (A1)
                 (B1) (A1) (B1) (B2) (A2) (B2) (A1) (A1) (B2) (B1)
                 (B2) (A1) (A2) (B2) (A2) (A1) (B1) (A1) (B2) (B2)
                 (A1) (B1) (A2) (A1) (A1) (B1) (B2) (A1) (B2) (B1)
                 (A1) (B2) (A2) (B2) (A1) (B1) (A2) (A1) (B2) (B1)
                 (A2) (B1) (A1) (B2) (A1) (B2) (A2) (B2) (B2) (A1)
                 (B1) (A1) (A1) (B2) (B1) (A1) (B1) (B1) (A1) (A2)
                 (B2) (A2) (A1) (A1) (B2) (B2) (A1)
 The electronic state is 1-A1.
    24 initial guesses have been made.
 Convergence on wavefunction:    0.001000000000000
 Davidson Disk Diagonalization:  ConvIn= 1.00D-03 SkipCon=T Conv= 1.00D-03.
 Max sub-space:  1740 initial roots:    24 roots to seek:     1 dimension of matrix:          870
 Iteration     1 Dimension    24 NMult     0 NNew     24
 CISAX will form    24 AO SS matrices at one time.
 NMat=    24 NSing=    12 JSym2X=-1.
 New state      1 was old state      2
 Excitation Energies [eV] at current iteration:
 Root      1 :     6.465019801593431
 Root      2 :     7.073138046794910
 Root      3 :     8.179993922681234
 Root      4 :     8.327698181544065
 Root      5 :     8.488866870059100
 Root      6 :     9.242634060685171
 Root      7 :     9.614865838553875
 Root      8 :     9.628004574589347
 Root      9 :     9.782619766772504
 Root     10 :    10.219410772148844
 Root     11 :    10.357607856951541
 Root     12 :    10.413842516772837
 Root     13 :    10.518134155575801
 Root     14 :    10.622735624941544
 Root     15 :    10.724198853546207
 Root     16 :    11.041858821725297
 Root     17 :    11.518857695772082
 Root     18 :    11.626091416784080
 Root     19 :    11.658459815982900
 Root     20 :    12.006995263212252
 Root     21 :    12.096645189692847
 Root     22 :    12.108498444671921
 Root     23 :    12.277383061674334
 Root     24 :    14.884380556180917
 Iteration     2 Dimension    48 NMult    24 NNew     24
 CISAX will form    24 AO SS matrices at one time.
 NMat=    24 NSing=    12 JSym2X=-1.
 Root      1 not converged, maximum delta is    0.072544435125608
 Excitation Energies [eV] at current iteration:
 Root      1 :     6.283213535857922   Change is   -0.181806265735509
 Root      2 :     7.035454746074556   Change is   -0.037683300720354
 Root      3 :     8.040062515597633   Change is   -0.139931407083600
 Root      4 :     8.151373952790374   Change is   -0.337492917268726
 Root      5 :     8.314600379501602   Change is   -0.013097802042463
 Root      6 :     9.142991477736176   Change is   -0.099642582948995
 Root      7 :     9.264784960263599   Change is   -0.350080878290276
 Root      8 :     9.463137209764621   Change is   -0.164867364824726
 Root      9 :     9.747525216089695   Change is   -0.035094550682808
 Root     10 :     9.875058263937463   Change is   -0.482549593014078
 Root     11 :    10.108337769034977   Change is   -0.111073003113869
 Root     12 :    10.176141265869143   Change is   -0.237701250903693
 Root     13 :    10.457617808283596   Change is   -0.060516347292206
 Root     14 :    10.544408852236293   Change is   -0.078326772705250
 Root     15 :    10.558253906184687   Change is   -0.483604915540611
 Root     16 :    10.674780598955982   Change is   -0.049418254590226
 Root     17 :    11.139025177021178   Change is   -0.379832518750902
 Root     18 :    11.605738638628509   Change is   -0.020352778155571
 Root     19 :    11.610148726894135   Change is   -0.048311089088765
 Root     20 :    11.861607217783964   Change is   -0.145388045428289
 Root     21 :    11.913714226992827
 Root     22 :    12.081127149281388   Change is   -0.027371295390534
 Root     23 :    12.221566670478875   Change is   -0.055816391195459
 Root     24 :    12.255124256744965   Change is   -2.629256299435951
 Iteration     3 Dimension    54 NMult    48 NNew      6
 CISAX will form     6 AO SS matrices at one time.
 NMat=     6 NSing=     3 JSym2X=-1.
 Root      1 not converged, maximum delta is    0.001218395688493
 Excitation Energies [eV] at current iteration:
 Root      1 :     6.282737651562073   Change is   -0.000475884295850
 Root      2 :     7.035338282130653   Change is   -0.000116463943903
 Root      3 :     8.039610302896731   Change is   -0.000452212700902
 Root      4 :     8.129641714359058   Change is   -0.021732238431317
 Root      5 :     8.314503110955419   Change is   -0.000097268546182
 Root      6 :     9.136465841951525   Change is   -0.006525635784651
 Iteration     4 Dimension    60 NMult    54 NNew      6
 CISAX will form     6 AO SS matrices at one time.
 NMat=     6 NSing=     3 JSym2X=-1.
 Root      1 has converged.
 Excitation Energies [eV] at current iteration:
 Root      1 :     6.282735997561129   Change is   -0.000001654000944
 Root      2 :     7.035337825592902   Change is   -0.000000456537751
 Root      3 :     8.039608841712027   Change is   -0.000001461184704
 Root      4 :     8.128758328419194   Change is   -0.000883385939865
 Root      5 :     8.314502889713463   Change is   -0.000000221241957
 Root      6 :     9.136108398016958   Change is   -0.000357443934568
 Convergence achieved on expansion vectors.
 1PDM for each excited state written to RWF  633
 Ground to excited state transition densities written to RWF  633

 ***********************************************************************
 Stability analysis using <AA,BB:AA,BB> singles matrix:
 ***********************************************************************

 Eigenvectors of the stability matrix:
 
 Eigenvector   1:      Triplet-B1   Eigenvalue= 0.2308863  <S**2>=2.000
       5 ->  6         0.67774
       5 ->  8         0.15491
 The wavefunction is stable under the perturbations considered.
 Leave Link  914 at Wed Sep  3 17:08:51 2025, MaxMem= 12348030976 cpu:              89.9 elap:               1.8
 (Enter /home/hhratchian/gaussian/gdv-20250101-j30+/gdv/l508.exe)
 The wavefunction is already stable.
 Leave Link  508 at Wed Sep  3 17:08:51 2025, MaxMem= 12348030976 cpu:               0.1 elap:               0.0
 (Enter /home/hhratchian/gaussian/gdv-20250101-j30+/gdv/l601.exe)
 Copying SCF densities to generalized density rwf, IOpCl= 0 IROHF=0.
 
 **********************************************************************
 
               Population analysis using the SCF Density.
 
 **********************************************************************
 
 Orbital symmetries:
       Occupied  (A1) (A1) (B2) (A1) (B1)
       Virtual   (A1) (B2) (A1) (B1) (A1) (B2) (B2) (A1) (A2) (B1)
                 (A1) (B2) (A1) (B2) (B2) (A1) (A1) (A2) (B1) (A1)
                 (B1) (A1) (B1) (B2) (A2) (B2) (A1) (A1) (B2) (B1)
                 (B2) (A1) (A2) (B2) (A2) (A1) (B1) (A1) (B2) (B2)
                 (A1) (B1) (A2) (A1) (A1) (B1) (B2) (A1) (B2) (B1)
                 (A1) (B2) (A2) (B2) (A1) (B1) (A2) (A1) (B2) (B1)
                 (A2) (B1) (A1) (B2) (A1) (B2) (A2) (B2) (B2) (A1)
                 (B1) (A1) (A1) (B2) (B1) (A1) (B1) (B1) (A1) (A2)
                 (B2) (A2) (A1) (A1) (B2) (B2) (A1)
 The electronic state is 1-A1.
 Alpha  occ. eigenvalues --      -19.14044      -1.02113      -0.54070      -0.39898      -0.32413
 Alpha virt. eigenvalues --       -0.02506       0.01919       0.07569       0.09538       0.10264
 Alpha virt. eigenvalues --        0.11484       0.15089       0.17010       0.19139       0.21994
 Alpha virt. eigenvalues --        0.22420       0.30706       0.33000       0.34773       0.47153
 Alpha virt. eigenvalues --        0.51977       0.56974       0.59061       0.59082       0.68024
 Alpha virt. eigenvalues --        0.70912       0.72881       0.76146       0.76298       0.78576
 Alpha virt. eigenvalues --        0.80622       0.81694       0.87789       0.88584       0.91189
 Alpha virt. eigenvalues --        0.98311       1.03644       1.04468       1.10405       1.32605
 Alpha virt. eigenvalues --        1.35871       1.38824       1.57177       1.61361       1.74027
 Alpha virt. eigenvalues --        1.85951       1.99081       2.04697       2.06120       2.12725
 Alpha virt. eigenvalues --        2.16383       2.17399       2.21221       2.41928       2.43204
 Alpha virt. eigenvalues --        2.48291       2.57091       2.61328       3.31490       3.41292
 Alpha virt. eigenvalues --        3.64790       3.71455       3.87735       3.94313       3.99519
 Alpha virt. eigenvalues --        4.06796       4.08177       4.08386       4.15363       4.30073
 Alpha virt. eigenvalues --        4.44350       4.80261       4.80960       4.89564       4.92212
 Alpha virt. eigenvalues --        5.11190       5.28131       5.71726       6.05668       6.24398
 Alpha virt. eigenvalues --        6.41991       6.64968       6.73319       6.79065       6.82322
 Alpha virt. eigenvalues --        6.83761       6.84149       7.02998       7.39593       7.40870
 Alpha virt. eigenvalues --        8.26060      14.91111
          Condensed to atoms (all electrons):
               1          2          3
     1  O    7.844245   0.255152   0.255152
     2  H    0.255152   0.562760   0.004814
     3  H    0.255152   0.004814   0.562760
 Mulliken charges:
               1
     1  O   -0.354548
     2  H    0.177274
     3  H    0.177274
 Sum of Mulliken charges=  -0.00000
 Mulliken charges with hydrogens summed into heavy atoms:
               1
     1  O   -0.000000
 Electronic spatial extent (au):  <R**2>=             20.0793
 Charge=              0.0000 electrons
 Dipole moment (field-independent basis, Debye):
    X=             -0.0000    Y=             -0.0000    Z=             -1.8472  Tot=              1.8472
 Quadrupole moment (field-independent basis, Debye-Ang):
   XX=             -7.8029   YY=             -4.4691   ZZ=             -6.5069
   XY=              0.0000   XZ=              0.0000   YZ=             -0.0000
 Traceless Quadrupole moment (field-independent basis, Debye-Ang):
   XX=             -1.5433   YY=              1.7905   ZZ=             -0.2473
   XY=              0.0000   XZ=              0.0000   YZ=             -0.0000
 Octapole moment (field-independent basis, Debye-Ang**2):
  XXX=              0.0000  YYY=              0.0000  ZZZ=             -0.9381  XYY=             -0.0000
  XXY=              0.0000  XXZ=             -0.1962  XZZ=              0.0000  YZZ=             -0.0000
  YYZ=             -1.2885  XYZ=             -0.0000
 Hexadecapole moment (field-independent basis, Debye-Ang**3):
 XXXX=             -7.8024 YYYY=             -6.7740 ZZZZ=             -8.1702 XXXY=             -0.0000
 XXXZ=             -0.0000 YYYX=             -0.0000 YYYZ=              0.0000 ZZZX=             -0.0000
 ZZZY=              0.0000 XXYY=             -2.7635 XXZZ=             -2.7081 YYZZ=             -2.1973
 XXYZ=              0.0000 YYXZ=              0.0000 ZZXY=             -0.0000
 N-N=           9.149980 E-N=        -198.977393  KE=          76.012817
 Symmetry A1   KE=          67.815617
 Symmetry A2   KE=           0.000000
 Symmetry B1   KE=           4.516270
 Symmetry B2   KE=           3.680930
 No NMR shielding tensors so no spin-rotation constants.
 Leave Link  601 at Wed Sep  3 17:08:52 2025, MaxMem= 12348030976 cpu:               4.3 elap:               0.1
 (Enter /home/hhratchian/gaussian/gdv-20250101-j30+/gdv/local/l9999.exe)
 Unable to Open any file for archive entry.
 1\1\GINC-HMNODE009\Stability\RB3LYP\Gen\H2O1\AABOUTAKA\03-Sep-2025\0\\
 #p B3LYP stable=opt guess=read chkbasis geom=allcheck\\H2O — B3LYP/g
 enecp q=0 m=1 [1/3: Stability]\\0,1\O,0,0.,0.,-0.0537736643\H,0,0.7634
 382893,0.,0.5311708322\H,0,-0.7634382893,0.,0.5311708322\\Version=ES64
 L-GDVRevJ.30+\State=1-A1\HF=-76.4661982\RMSD=6.917e-10\Dipole=0.,0.,0.
 7267492\Quadrupole=1.3312267,-1.1473898,-0.1838369,0.,0.,0.\PG=C02V [C
 2(O1),SGV(H2)]\\@
 The archive entry for this job was punched.


 A SLIP OF THE FOOT YOU MAY SOON RECOVER, BUT A SLIP OF THE TONGUE
 YOU MAY NEVER GET OVER. -- BEN FRANKLIN
 Job cpu time:       0 days  0 hours  2 minutes 18.1 seconds.
 Elapsed time:       0 days  0 hours  0 minutes  3.4 seconds.
 File lengths (MBytes):  RWF=    100 Int=      0 D2E=      0 Chk=     19 Scr=      2
 Normal termination of Gaussian DV at Wed Sep  3 17:08:52 2025.
