 Set GAUSS_MDEF to "92GB".
 Set GAUSS_PDEF to "56".
 Entering Gaussian System, Link 0=gdv
 AtFile(1): SDDPlusTZ.gbs
            ! SDDPlusTZ Basis Set + ECP
            !
            !
            ! Last updated/modified by: H. P. Hratchian, August 2017.
            !
            !
            ! This file contains parameters for the SDD+TZ basis set and ECP, given in the
            ! Gaussian input format. This set is often used in the Hratchian Group's metal
            ! oxide cluster work. References to this basis and ECP are:
            !      (1) Waller, S. E.; Mann, J. E.; Rothgeb, D. W.; Jarrold, C. C. J. Phys.
            !          Chem. A 2012, 116 (39), 9639–9652.
            !      (2) Mayhall, N. J.; Rothgeb, D. W.; Hossain, E.; Raghavachari, K.;
            !          Jarrold, C. C. J. Chem. Phys. 2009, 130, 124313− 124323.
            !      (3) Andrae, D.; Haussermann, U.; Dolg, M.; Stoll, H.; Preuss, H. Theor.
            !          Chim. Acta 1990, 77, 123−141.
            !
            -Sc 0
            SDD
            S 1 1.00
             0.003 1.0
            P 1 1.00
             0.0071415 1.0
            D 1 1.00
             0.012 1.0
             F   1 1.00
                  0.180    1.0
             F   1 1.00
                  0.764    1.0
             G   1 1.00
                  0.347    1.0
            ****
            -Ti 0
            SDD
            S 1 1.00
             0.003 1.0
            P 1 1.00
             0.0071352 1.0
            D 1 1.00
             0.015 1.0
             F   1 1.00
                  0.285    1.0
             F   1 1.00
                  1.264    1.0
             G   1 1.00
                  0.636    1.0
            ****
            -V 0
            SDD
            S 1 1.00
             0.003 1.0
            P 1 1.00
             0.0079179 1.0
            D 1 1.00
             0.018 1.0
             F   1 1.00
                  0.425    1.0
             F   1 1.00
                  1.788    1.0
             G   1 1.00
                  1.048    1.0
            ****
            -Cr 0
            SDD
            S 1 1.00
             0.003 1.0
            P 1 1.00
             0.0079935 1.0
            D 1 1.00
             0.021 1.0
             F   1 1.00
                  0.640    1.0
             F   1 1.00
                  2.555    1.0
             G   1 1.00
                  1.712    1.0
            ****
            -Mn 0
            SDD
            S 1 1.00
             0.003 1.0
            P 1 1.00
             0.0084888 1.0
            D 1 1.00
             0.021 1.0
             F   1 1.00
                  0.795    1.0
             F   1 1.00
                  3.118    1.0
             G   1 1.00
                  1.964    1.0
            ****
            -Fe 0
            SDD
            S 1 1.00
             0.003 1.0
            P 1 1.00
             0.0088332 1.0
            D 1 1.00
             0.024 1.0
             F   1 1.00
                  0.871    1.0
             F   1 1.00
                  3.516    1.0
             G   1 1.00
                  2.269    1.0
            ****
            -Co 0
            SDD
            S 1 1.00
             0.003 1.0
            P 1 1.00
             0.0091782 1.0
            D 1 1.00
             0.027 1.0
             F   1 1.00
                  1.019    1.0
             F   1 1.00
                  4.076    1.0
             G   1 1.00
                  2.711    1.0
            ****
            -Ni 0
            SDD
            S 1 1.00
             0.003 1.0
            P 1 1.00
             0.0095352 1.0
            D 1 1.00
             0.027 1.0
             F   1 1.00
                  1.182    1.0
             F   1 1.00
                  4.685    1.0
             G   1 1.00
                  3.212    1.0
            ****
            -Cu 0
            SDD
            S 1 1.00
             0.003 1.0
            P 1 1.00
             0.0092634 1.0
            D 1 1.00
             0.030 1.0
             F   1 1.00
                  1.315    1.0
             F   1 1.00
                  5.208    1.0
             G   1 1.00
                  3.665    1.0
            ****
            -Zn 0
            SDD
            S 1 1.00
             0.003 1.0
            P 1 1.00
             0.0149958 1.0
            D 1 1.00
             0.033 1.0
             F   1 1.00
                  1.498    1.0
             F   1 1.00
                  5.871    1.0
             G   1 1.00
                  4.365    1.0
            ****
            -Y 0
            SDD
            S 1 1.00
             0.003 1.0
            P 1 1.00
             0.0066708 1.0
            D 1 1.00
             0.006 1.0
             F   1 1.00
                  0.144    1.0
             F   1 1.00
                  0.546    1.0
             G   1 1.00
                  0.249    1.0
            ****
            -Zr 0
            SDD
            S 1 1.00
             0.0033 1.0
            P 1 1.00
             0.0067569 1.0
            D 1 1.00
             0.009 1.0
             F   1 1.00
                  0.236    1.0
             F   1 1.00
                  0.883    1.0
             G   1 1.00
                  0.547    1.0
            ****
            -Nb 0
            SDD
            S 1 1.00
             0.0045 1.0
            P 1 1.00
             0.0701512 1.0
            D 1 1.00
             0.011 1.0
             F    1 1.00
                   0.261   1.0
             F    1 1.00
                   0.970   1.0
             G    1 1.00
                   0.536   1.0
            ****
            -Mo 0
            SDD
            S 1 1.00
             0.0045 1.0
            P 1 1.00
             0.0070821 1.0
            D 1 1.00
             0.0129 1.0
             F   1 1.00
                  0.338    1.0
             F   1 1.00
                  1.223    1.0
             G   1 1.00
                  0.744    1.0
            ****
            -Ru 0
            SDD
            S 1 1.00
             0.0048 1.0
            P 1 1.00
             0.0068781 1.0
            D 1 1.00
             0.0153 1.0
             F   1 1.00
                  0.478    1.0
             F   1 1.00
                  1.666    1.0
             G   1 1.00
                  1.057    1.0
            ****
            -Rh 0
            SDD
            S 1 1.00
             0.0048 1.0
            P 1 1.00
             0.007251 1.0
            D 1 1.00
             0.0165 1.0
             F   1 1.00
                  0.567    1.0
             F   1 1.00
                  1.989    1.0
             G   1 1.00
                  1.236    1.0
            ****
            -Pd 0
            SDD
            S 1 1.00
             0.0048 1.0
            P 1 1.00
             0.0074262 1.0
            D 1 1.00
             0.018 1.0
             F   1 1.00
                  0.621    1.0
             F   1 1.00
                  2.203    1.0
             G   1 1.00
                  1.385    1.0
            ****
            -Ag 0
            SDD
            S 1 1.00
             0.0048 1.0
            P 1 1.00
             0.0071169 1.0
            D 1 1.00
             0.0198 1.0
             F   1 1.00
                  0.732    1.0
             F   1 1.00
                  2.537    1.0
             G   1 1.00
                  1.587    1.0
            ****
            -Cd 0
            SDD
            S 1 1.00
             0.0057 1.0
            P 1 1.00
             0.0109932 1.0
            D 1 1.00
             0.0225 1.0
             F   1 1.00
                  0.834    1.0
             F   1 1.00
                  2.853    1.0
             G   1 1.00
                  1.795    1.0
            ****
            -W 0
             SDD
            S 1 1.00
             0.0045 1.0
            P 1 1.00
             0.0081084 1.0
            D 1 1.00
             0.012 1.0
             F   1 1.00
                  0.256    1.0
             F   1 1.00
                  0.825    1.0
             G   1 1.00
                  0.627    1.0
            ****
            -Os 0
            SDD
            S 1 1.00
             0.0045 1.0
            P 1 1.00
             0.0079971 1.0
            D 1 1.00
             0.015 1.0
             F   1 1.00
                  0.347    1.0
             F   1 1.00
                  1.067    1.0
             G   1 1.00
                  0.860    1.0
            ****
            -Ir 0
            SDD
            S 1 1.00
             0.0045 1.0
            P 1 1.00
             0.0082092 1.0
            D 1 1.00
             0.015 1.0
             F   1 1.00
                  0.395    1.0
             F   1 1.00
                  1.189    1.0
             G   1 1.00
                  0.982    1.0
            ****
            -Pt 0
            SDD
            S 1 1.00
             0.0045 1.0
            P 1 1.00
             0.0083406 1.0
            D 1 1.00
             0.015 1.0
             F   1 1.00
                  0.443    1.0
             F   1 1.00
                  1.323    1.0
             G   1 1.00
                  1.100    1.0
            ****
            -Au 0
            SDD
            S 1 1.00
             0.0019245 1.0
            P 1 1.00
             0.0102 1.0
            D 1 1.00
             0.0136536 1.0
             F   1 1.00
                  1.461    1.0
             F   1 1.00
                  0.498    1.0
             G   1 1.00
                  1.218    1.0
            ****
            !
            ! Gd ... HPH Added S, P, D, and F diffuse functions using 0.3 exponent ratio.
            -Gd 0
            SDD
            S 1 1.00
             0.0071100 1.0
            P 1 1.00
             0.0240000 1.0
            D 1 1.00
             0.0311100 1.0
            F 1 1.00
             0.0856500 1.0
            ****
            -H  B  C  N  O  F  P  S  Cl 0
            aug-cc-pVTz
            ****
            
            -Sc  Ti  V  Cr  Mn  Fe  Co  Ni  Cu  Zn  Y  Zr  Nb  Mo  Ru  Rh  Pd  Ag  Cd  W  Os  Ir  Pt  Au  Gd  0
            SDD
 Initial command:
 /home/hhratchian/gaussian/gdv-20250101-j30+/gdv/local/l1.exe "/scratch/aaboutaka/1590363/Gau-1892507.inp" -scrdir="/scratch/aaboutaka/1590363/"
 Default is to use a total of  56 processors:
                               56 via shared-memory
                                1 via Linda
 Entering Link 1 = /home/hhratchian/gaussian/gdv-20250101-j30+/gdv/local/l1.exe PID=   1892508.
  
 Copyright (c) 1988-2024, Gaussian, Inc.  All Rights Reserved.
  
 This is the private, development version of
 the Gaussian(R) DV system of programs. It is based on
 the Gaussian(R) 16 system (copyright 2016, Gaussian, Inc.),
 the Gaussian(R) 09 system (copyright 2009, Gaussian, Inc.),
 the Gaussian(R) 03 system (copyright 2003, Gaussian, Inc.),
 the Gaussian(R) 98 system (copyright 1998, Gaussian, Inc.),
 the Gaussian(R) 94 system (copyright 1995, Gaussian, Inc.),
 the Gaussian 92(TM) system (copyright 1992, Gaussian, Inc.),
 the Gaussian 90(TM) system (copyright 1990, Gaussian, Inc.),
 the Gaussian 88(TM) system (copyright 1988, Gaussian, Inc.),
 the Gaussian 86(TM) system (copyright 1986, Carnegie Mellon
 University), and the Gaussian 82(TM) system (copyright 1983,
 Carnegie Mellon University). Gaussian is a federally registered
 trademark of Gaussian, Inc.
  
 This software contains proprietary and confidential information,
 including trade secrets, belonging to Gaussian, Inc.
  
 This software is provided under written license and may be
 used, copied, transmitted, or stored only in accord with that
 written license.
  
 The following legend is applicable only to US Government
 contracts under FAR:
  
                    RESTRICTED RIGHTS LEGEND
  
 Use, reproduction and disclosure by the US Government is
 subject to restrictions as set forth in subparagraphs (a)
 and (c) of the Commercial Computer Software - Restricted
 Rights clause in FAR 52.227-19.
  
 Gaussian, Inc.
 340 Quinnipiac St., Bldg. 40, Wallingford CT 06492
  
  
 ---------------------------------------------------------------
 Warning -- This program may not be used in any manner that
 competes with the business of Gaussian, Inc. or will provide
 assistance to any competitor of Gaussian, Inc.  The licensee
 of this program is prohibited from giving any competitor of
 Gaussian, Inc. access to this program.  By using this program,
 the user acknowledges that Gaussian, Inc. is engaged in the
 business of creating and licensing software in the field of
 computational chemistry and represents and warrants to the
 licensee that it is not a competitor of Gaussian, Inc. and that
 it will not use this program in any manner prohibited above.
 ---------------------------------------------------------------
  

 Cite this work as:
 Gaussian Development Version, Revision J.30+,
 M. J. Frisch, G. W. Trucks, G. Scalmani, J. R. Cheeseman, X. Li, 
 J. Bloino, B. G. Janesko, A. V. Marenich, J. Zheng, F. Lipparini, 
 A. Jenkins, A. Liu, H. Liu, H. B. Schlegel, G. E. Scuseria, 
 M. A. Robb, V. Barone, G. A. Petersson, H. Nakatsuji, B. Mennucci, 
 C. Adamo, N. Rega, M. Caricato, H. P. Hratchian, J. V. Ortiz, 
 F. Pawlowski, A. F. Izmaylov, H. Hu, C. Liao, J. L. Sonnenberg, 
 D. Williams-Young, F. Ding, R. Gomperts, F. Egidi, J. Goings, 
 B. Peng, A. Petrone, T. Henderson, D. Ranasinghe, V. G. Zakrzewski, 
 J. Gao, G. Zheng, W. Liang, M. Hada, M. Ehara, K. Toyota, R. Fukuda, 
 J. Hasegawa, M. Ishida, T. Nakajima, Y. Honda, O. Kitao, H. Nakai, 
 T. Vreven, K. Throssell, J. A. Montgomery, Jr., J. E. Peralta, 
 F. Ogliaro, M. J. Bearpark, J. J. Heyd, E. N. Brothers, K. N. Kudin, 
 V. N. Staroverov, T. A. Keith, R. Kobayashi, J. Normand, 
 K. Raghavachari, A. P. Rendell, J. C. Burant, S. S. Iyengar, 
 M. Cossi, J. M. Millam, M. Klene, R. Cammi, R. L. Martin, O. Farkas, 
 J. B. Foresman, and D. J. Fox, Gaussian, Inc., Wallingford CT, 2024.
 
 *******************************************
 Gaussian DV:  ES64L-GDVRevJ.30+ 18-Dec-2024
                  3-Sep-2025 
 *******************************************
 %chk=H2O_CAM-B3LYP_genecp_q0_m1_stab.chk
 -----------------------------------------------------------------
 #p CAM-B3LYP/genecp stable=opt scf=qc guess=mix int=superfinegrid
 -----------------------------------------------------------------
 1/37=210000000,38=1,172=1/1;
 2/12=2/2;
 3/5=7,11=2,16=1,17=8,25=1,30=1,74=-40,75=-7/1,2,3;
 4/13=-1/1;
 5/5=2,8=3,38=5/8;
 6/7=2,8=2,9=2,10=2,28=1/1;
 8/6=1,10=90,11=11/1;
 9/8=-3,42=1,46=1/14;
 5/5=2,8=3,17=40,38=5/8(-2);
 6/7=2,8=2,9=2,10=2,28=1/1;
 99/5=1,9=1/99;
 Leave Link    1 at Wed Sep  3 18:43:44 2025, MaxMem=           0 cpu:               0.2 elap:               0.0
 (Enter /home/hhratchian/gaussian/gdv-20250101-j30+/gdv/local/l101.exe)
 
  Hrant - IAPOps =                         0
  Hrant - IAPOp1 =                         0
  Hrant - IAPOp2 =                         0
  Hrant - DoAP   =   F
 
 -------------------------------------------------
 H2O — CAM-B3LYP/genecp q=0 m=1 [1/3: Stability]
 -------------------------------------------------
 Symbolic Z-matrix:
 Charge =     0 Multiplicity =     1
 O                     0.        0.        0. 
 H                     0.7586    0.        0.50428 
 H                    -0.7586    0.        0.50428 
 
 ITRead=  0  0  0
 MicOpt= -1 -1 -1
 NAtoms=      3 NQM=        3 NQMF=       0 NMMI=      0 NMMIF=      0
                NMic=       0 NMicF=      0.
                    Isotopes and Nuclear Properties:
 (Nuclear quadrupole moments (NQMom) in fm**2, nuclear magnetic moments (NMagM)
  in nuclear magnetons)

  Atom         1           2           3
 IAtWgt=          16           1           1
 AtmWgt=  15.9949146   1.0078250   1.0078250
 NucSpn=           0           1           1
 AtZEff=   -0.000000   -0.000000   -0.000000
 NQMom=    0.0000000   0.0000000   0.0000000
 NMagM=    0.0000000   2.7928460   2.7928460
 AtZNuc=   8.0000000   1.0000000   1.0000000
 Leave Link  101 at Wed Sep  3 18:43:44 2025, MaxMem= 12348030976 cpu:               0.3 elap:               0.1
 (Enter /home/hhratchian/gaussian/gdv-20250101-j30+/gdv/l202.exe)
                          Input orientation:                          
 ---------------------------------------------------------------------
 Center     Atomic      Atomic             Coordinates (Angstroms)
 Number     Number       Type             X           Y           Z
 ---------------------------------------------------------------------
      1          8           0        0.000000    0.000000    0.000000
      2          1           0        0.758602    0.000000    0.504284
      3          1           0       -0.758602   -0.000000    0.504284
 ---------------------------------------------------------------------
                    Distance matrix (angstroms):
                    1          2          3
     1  O    0.000000
     2  H    0.910922   0.000000
     3  H    0.910922   1.517204   0.000000
 Stoichiometry    H2O
 Framework group  C2V[C2(O),SGV(H2)]
 Deg. of freedom     2
 Full point group                 C2V     NOp   4
 Largest Abelian subgroup         C2V     NOp   4
 Largest concise Abelian subgroup C2      NOp   2
                         Standard orientation:                         
 ---------------------------------------------------------------------
 Center     Atomic      Atomic             Coordinates (Angstroms)
 Number     Number       Type             X           Y           Z
 ---------------------------------------------------------------------
      1          8           0        0.000000    0.000000    0.100857
      2          1           0        0.000000    0.758602   -0.403427
      3          1           0       -0.000000   -0.758602   -0.403427
 ---------------------------------------------------------------------
 Rotational constants (GHZ):        1110.1894251         435.6864908         312.8935057
 Leave Link  202 at Wed Sep  3 18:43:44 2025, MaxMem= 12348030976 cpu:               0.3 elap:               0.0
 (Enter /home/hhratchian/gaussian/gdv-20250101-j30+/gdv/local/l301.exe)
 General  basis read from cards:  (5D, 7F)
 Centers:       1      2      3
 aug-cc-pVTz
 ****
 ======================================================================================================
                                       Pseudopotential Parameters
 ======================================================================================================
  Center     Atomic      Valence      Angular      Power
  Number     Number     Electrons     Momentum     of R      Exponent        Coefficient   SO-Coeffient
 ======================================================================================================
    1          8
                                   No pseudopotential on this center.
    2          1
                                   No pseudopotential on this center.
    3          1
                                   No pseudopotential on this center.
 ======================================================================================================
 Ernie: Thresh=  0.10000D-02 Tol=  0.10000D-05 Strict=F.
 Ernie:  3 primitive shells out of 52 were deleted.
 There are    42 symmetry adapted cartesian basis functions of A1  symmetry.
 There are    12 symmetry adapted cartesian basis functions of A2  symmetry.
 There are    20 symmetry adapted cartesian basis functions of B1  symmetry.
 There are    31 symmetry adapted cartesian basis functions of B2  symmetry.
 There are    35 symmetry adapted basis functions of A1  symmetry.
 There are    12 symmetry adapted basis functions of A2  symmetry.
 There are    18 symmetry adapted basis functions of B1  symmetry.
 There are    27 symmetry adapted basis functions of B2  symmetry.
    92 basis functions,   126 primitive gaussians,   105 cartesian basis functions
     5 alpha electrons        5 beta electrons
       nuclear repulsion energy         9.6435792538 Hartrees.
 IExCor=   2004019 DFT=T Ex+Corr=CAM-B3LYP ScaHFX=  1.000000
 ScaDFX=  1.000000  1.000000  1.000000  0.810000  1.000000  0.000000
 ScaDFX=  0.000000  0.000000  0.000000  0.000000  0.000000  0.000000
 Grid=SuperFine IRanWt=     -1 IRanGd=            0 ICorTp=0 IEDCtl=  2004
 HFx  wShort=  0.000000 wLong=  0.330000 cFull=  0.190000 cShort=  0.000000 cLong=  0.460000
 DFx  wShort=  0.330000 wLong=  0.000000 cFull=  0.350000 cShort=  0.460000 cLong=  0.000000
 NAtoms=    3 NActive=    3 NUniq=    2 SFac= 2.25D+00 NAtFMM=   60 NAOKFM=F Big=F
 Integral buffers will be    131072 words long.
 Raffenetti 2 integral format.
 Two-electron integral symmetry is turned on.
 Leave Link  301 at Wed Sep  3 18:43:44 2025, MaxMem= 12348030976 cpu:               0.2 elap:               0.1
 (Enter /home/hhratchian/gaussian/gdv-20250101-j30+/gdv/l302.exe)
 NPDir=0 NMtPBC=     1 NCelOv=     1 NCel=       1 NClECP=     1 NCelD=      1
         NCelK=      1 NCelE2=     1 NClLst=     1 CellRange=     0.0.
 One-electron integrals computed using PRISM.
 One-electron integral symmetry used in STVInt
   4 Symmetry operations used in ECPInt.
 ECPInt:  NShTT=     528 NPrTT=    1270 LenC2=     529 LenP2D=    1253.
 LDataN:  DoStor=T MaxTD1= 6 Len=  172
 NBasis=    92 RedAO= T EigKep=  3.31D-04  NBF=    35    12    18    27
 NBsUse=    92 1.00D-06 EigRej= -1.00D+00 NBFU=    35    12    18    27
 Precomputing XC quadrature grid using
 IXCGrd=   9 Grid=SuperFine IRanWt=          -1 IRanGd=           0 AccXCQ= 0.00D+00.
 Generated NRdTot=       0 NPtTot=      198748 NUsed=           0 NTot=          64
 NSgBfM=   105   105   105   105   105 MxSgAt=     3 MxSgA2=     3 SizInc=   0.000
 NMBTot=     1922 MaxBatPerAtom=      131 MaxMicBPerAtom=      654 NBfPt=            16854773.
 Leave Link  302 at Wed Sep  3 18:43:44 2025, MaxMem= 12348030976 cpu:               3.9 elap:               0.1
 (Enter /home/hhratchian/gaussian/gdv-20250101-j30+/gdv/l303.exe)
 DipDrv:  MaxL=1.
 Leave Link  303 at Wed Sep  3 18:43:44 2025, MaxMem= 12348030976 cpu:               0.3 elap:               0.0
 (Enter /home/hhratchian/gaussian/gdv-20250101-j30+/gdv/l401.exe)
 ExpMin= 2.53D-02 ExpMax= 1.53D+04 ExpMxC= 5.22D+02 IAcc=3 Grid=SuperFine AccDes= 0.00D+00
 Harris functional with IExCor=10009 and Grid=SuperFine diagonalized for initial guess.
 HarFok:  IExCor=   10009 AccDes= 0.00D+00 Grid=SuperFine IDoV= 1 UseB2=F ITyADJ=14 ICtDFT=  3500011
 FoFCou: FMM=F IPFlag=           0 FMFlag=      100000 FMFlg1=           0
         NFxFlg=           0 DoJE=T BraDBF=F KetDBF=T FulRan=T
         wScrn=  0.000000 ICntrl=       500 IOpCl=  0 I1Cent=   200000004 NGrid=           0
         NMat0=    1 NMatS0=      1 NMatT0=    0 NMatD0=    1 NMtDS0=    0 NMtDT0=    0
 Petite list used in FoFCou.
 Harris En= -76.4231589484083    
 JPrj=0 DoOrth=F DoCkMO=T.
 Mixing orbitals, IMix= 1 IMixAn=  0 NRI=1 NE=    5 Coef=  7.07106781D-01  7.07106781D-01
 Initial guess orbital symmetries:
       Occupied  (A1) (A1) (B2) (A1) (?A)
       Virtual   (?A) (B2) (A1) (B1) (A1) (B2) (B2) (A1) (A2) (A1)
                 (B1) (B2) (A1) (B2) (B2) (A1) (A1) (B1) (A2) (A1)
                 (A1) (B1) (B1) (B2) (A2) (B2) (A1) (B2) (A1) (B1)
                 (B2) (A1) (A2) (B2) (A2) (A1) (B1) (A1) (B2) (B2)
                 (A1) (B1) (A1) (A2) (A1) (B2) (B1) (A1) (B1) (B2)
                 (A1) (A2) (B2) (B2) (A1) (B1) (A2) (B2) (A1) (B1)
                 (A2) (A1) (B2) (B1) (A1) (B2) (B2) (A2) (A1) (B2)
                 (B1) (A1) (A1) (B2) (B1) (A1) (B1) (A1) (A2) (B1)
                 (A2) (B2) (A1) (B2) (A1) (B2) (A1)
 Leave Link  401 at Wed Sep  3 18:43:45 2025, MaxMem= 12348030976 cpu:               7.1 elap:               0.2
 (Enter /home/hhratchian/gaussian/gdv-20250101-j30+/gdv/l508.exe)
 Keep R1 ints in memory in symmetry-blocked form, NReq=71129721.
 FoFCou: FMM=F IPFlag=           0 FMFlag=           0 FMFlg1=           0
         NFxFlg=           0 DoJE=F BraDBF=F KetDBF=F FulRan=T
         wScrn=  0.000000 ICntrl=       600 IOpCl=  0 I1Cent=           0 NGrid=           0
         NMat0=    1 NMatS0=   4278 NMatT0=    0 NMatD0=    1 NMtDS0=    0 NMtDT0=    0
 Petite list used in FoFCou.
 Tight linear equation convergence will be used.
 RCAM-B3LYP wavefunction.
 Quadratic Convergence SCF Method.
 Line search only if initial step raises energy.
 Density matrix breaks symmetry, PCut= 1.00D-04
 Density matrix has no symmetry -- integrals replicated.
 Iteration   1 EE= -76.0855744341299                                    Grad=3.205D-01 Max rot=   12.1742 deg.
 Gradient too large for Newton-Raphson -- use scaled steepest descent instead.
 Alpha Gap=     0.136 HL deriv= 1.57D+00
     ILin= 1 X=0.000D+00 Y=-7.608557443413D+01 DE= 0.00D+00 F= -1.34D+00
     ILin= 2 X=3.000D-01 Y=-7.632251165332D+01 DE=-2.37D-01 F= -2.93D-01 OKLS=F
     ILin= 3 X=4.000D-01 Y=-7.634149852485D+01 DE=-2.56D-01 F= -1.04D-01
     ILin= 4 X=6.000D-01 Y=-7.633969574821D+01 DE=-2.54D-01 F=  1.20D-01
     An  expanding polynomial of degree  4 produced  0.4738
 Density matrix breaks symmetry, PCut= 1.00D-04
 Density matrix has no symmetry -- integrals replicated.
 Iteration   2 EE= -76.3457992829403     Delta-E=       -0.260224848810 Grad=4.846D-01 Max rot=    5.6681 deg.
 Gradient too large for Newton-Raphson -- use scaled steepest descent instead.
 Alpha Gap=     0.238 HL deriv= 1.83D-02
     ILin= 1 X=0.000D+00 Y=-7.634579928294D+01 DE= 0.00D+00 F= -4.82D-01
     ILin= 2 X=4.000D-01 Y=-7.642836532020D+01 DE=-8.26D-02 F=  8.19D-02 OKLS=T
     Accept linear search using points  1 and  2.
     An  expanding polynomial of degree  2 produced  0.2218
 Density matrix breaks symmetry, PCut= 1.00D-04
 Density matrix has no symmetry -- integrals replicated.
 Iteration   3 EE= -76.4195370167135     Delta-E=       -0.073737733773 Grad=1.713D-01 Max rot=    2.0073 deg.
 Gradient too large for Newton-Raphson -- use scaled steepest descent instead.
 Alpha Gap=     0.356 HL deriv= 2.35D-02
     ILin= 1 X=0.000D+00 Y=-7.641953701671D+01 DE= 0.00D+00 F= -5.82D-02
     ILin= 2 X=5.000D-01 Y=-7.643053939258D+01 DE=-1.10D-02 F=  1.48D-02 OKLS=T
     Accept linear search using points  1 and  2.
     An  expanding polynomial of degree  2 produced  0.2953
 Density matrix breaks symmetry, PCut= 1.00D-04
 Density matrix has no symmetry -- integrals replicated.
 Iteration   4 EE= -76.4304602026970     Delta-E=       -0.010923185984 Grad=5.553D-02 Max rot=    0.7155 deg.
 Gradient too large for Newton-Raphson -- use scaled steepest descent instead.
 Alpha Gap=     0.401 HL deriv= 2.09D-02
     ILin= 1 X=0.000D+00 Y=-7.643046020270D+01 DE= 0.00D+00 F= -4.92D-03
     ILin= 2 X=3.000D-01 Y=-7.643154575514D+01 DE=-1.09D-03 F= -2.31D-03 OKLS=F
     ILin= 3 X=6.000D-01 Y=-7.643184310502D+01 DE=-1.38D-03 F=  3.37D-04
     Accept linear search using points  2 and  3.
     An  expanding polynomial of degree  3 produced  0.4428
 Density matrix breaks symmetry, PCut= 1.00D-04
 Density matrix has no symmetry -- integrals replicated.
 Iteration   5 EE= -76.4317864473809     Delta-E=       -0.001326244684 Grad=3.200D-02 Max rot=    0.4134 deg.
 Gradient too large for Newton-Raphson -- use scaled steepest descent instead.
 Alpha Gap=     0.417 HL deriv= 1.53D-02
     ILin= 1 X=0.000D+00 Y=-7.643178644738D+01 DE= 0.00D+00 F= -8.82D-04
     ILin= 2 X=4.000D-01 Y=-7.643207570077D+01 DE=-2.89D-04 F= -5.65D-04 OKLS=F
     ILin= 3 X=7.000D-01 Y=-7.643220959021D+01 DE=-4.23D-04 F= -3.28D-04
     ILin= 4 X=1.400D+00 Y=-7.643224604050D+01 DE=-4.60D-04 F=  2.23D-04
     Accept linear search using points  3 and  4.
     An  expanding polynomial of degree  4 produced  1.0867
 Density matrix breaks symmetry, PCut= 1.00D-04
 Density matrix has no symmetry -- integrals replicated.
 Iteration   6 EE= -76.4322774139810     Delta-E=       -0.000490966600 Grad=1.132D-02 Max rot=    0.1343 deg.
 Gradient too large for Newton-Raphson -- use scaled steepest descent instead.
 Alpha Gap=     0.415 HL deriv= 4.16D-03
     ILin= 1 X=0.000D+00 Y=-7.643227741398D+01 DE= 0.00D+00 F= -1.47D-04
     ILin= 2 X=7.000D-01 Y=-7.643230674307D+01 DE=-2.93D-05 F=  6.36D-05 OKLS=T
     Accept linear search using points  1 and  2.
     An  expanding polynomial of degree  2 produced  0.4307
 Density matrix breaks symmetry, PCut= 1.00D-04
 Density matrix has no symmetry -- integrals replicated.
 Iteration   7 EE= -76.4323129394915     Delta-E=       -0.000035525510 Grad=3.087D-03 Max rot=    0.0719 deg.
 QCNR:  CnvC1=2.95D-09 CnvC2=2.95D-08
 LinEq1:  Iter=  0 NonCon=     1 RMS=1.55D-04 Max=2.90D-03 NDo=     1
 AX will form     1 AO Fock derivatives at one time.
 LinEq1:  Iter=  1 NonCon=     1 RMS=3.35D-05 Max=2.72D-04 NDo=     1
 LinEq1:  Iter=  2 NonCon=     1 RMS=9.78D-06 Max=7.94D-05 NDo=     1
 LinEq1:  Iter=  3 NonCon=     1 RMS=2.20D-06 Max=1.83D-05 NDo=     1
 LinEq1:  Iter=  4 NonCon=     1 RMS=3.59D-07 Max=1.93D-06 NDo=     1
 LinEq1:  Iter=  5 NonCon=     1 RMS=4.30D-08 Max=3.52D-07 NDo=     1
 LinEq1:  Iter=  6 NonCon=     1 RMS=3.58D-09 Max=2.44D-08 NDo=     1
 LinEq1:  Iter=  7 NonCon=     0 RMS=3.71D-10 Max=3.49D-09 NDo=     1
 Linear equations converged to 2.950D-09 2.950D-08 after     7 iterations.
 Angle between quadratic step and gradient=  48.35 degrees.
     ILin= 1 X=0.000D+00 Y=-7.643231293949D+01 DE= 0.00D+00 F= -2.75D-05
     ILin= 2 X=1.000D+00 Y=-7.643232670365D+01 DE=-1.38D-05 F= -3.95D-08 OKLS=T
     Reject lnstep IMin12=  1  2 Big=T Turn=F Min= 1.001D+00 FVal=-7.643232670368D+01 Lims=  0.00D+00  1.00D+00
     ILin= 3 X=2.000D+00 Y=-7.643231304381D+01 DE=-1.04D-07 F=  2.73D-05
     An  expanding polynomial of degree  3 produced  1.0019
     Minimum is close to point  2 DX=  1.90D-03 DF= -4.96D-11 DXR=  1.90D-03 DFR=  3.60D-06 which will be used.
 Iteration   8 EE= -76.4323267036485     Delta-E=       -0.000013764157 Grad=2.101D-05 Max rot=    0.0003 deg.
 QCNR:  CnvC1=2.10D-10 CnvC2=2.10D-09
 LinEq1:  Iter=  0 NonCon=     1 RMS=7.03D-07 Max=5.98D-06 NDo=     1
 LinEq1:  Iter=  1 NonCon=     1 RMS=2.57D-07 Max=4.47D-06 NDo=     1
 LinEq1:  Iter=  2 NonCon=     1 RMS=3.19D-08 Max=2.03D-07 NDo=     1
 LinEq1:  Iter=  3 NonCon=     1 RMS=4.19D-09 Max=2.67D-08 NDo=     1
 LinEq1:  Iter=  4 NonCon=     1 RMS=1.04D-09 Max=8.46D-09 NDo=     1
 LinEq1:  Iter=  5 NonCon=     0 RMS=9.30D-11 Max=6.19D-10 NDo=     1
 Linear equations converged to 2.101D-10 2.101D-09 after     5 iterations.
 Angle between quadratic step and gradient=  43.97 degrees.
     ILin= 1 X=0.000D+00 Y=-7.643232670365D+01 DE= 0.00D+00 F= -3.78D-10
     ILin= 2 X=1.000D+00 Y=-7.643232670384D+01 DE=-1.89D-10
 Iteration   9 EE= -76.4323267038377     Delta-E=       -0.000000000189 Grad=1.159D-08 Max rot=    0.0000 deg.
 Rotation gradient small -- convergence achieved.
 Orbital symmetries in SymMO:
    1=1    2=1    3=4    4=1    5=3    6=1    7=4    8=1    9=3   10=1
   11=4   12=4   13=1   14=2   15=3   16=1   17=4   18=1   19=4   20=4
   21=1   22=1   23=2   24=3   25=1   26=3   27=1   28=3   29=4   30=2
   31=4   32=1   33=1   34=4   35=3   36=4   37=1   38=2   39=4   40=2
   41=1   42=3   43=1   44=4   45=4   46=1   47=3   48=1   49=2   50=1
   51=3   52=4   53=1   54=4   55=3   56=1   57=2   58=4   59=4   60=1
   61=3   62=2   63=4   64=1   65=3   66=2   67=1   68=3   69=4   70=1
   71=4   72=4   73=2   74=4   75=1   76=3   77=1   78=1   79=4   80=3
   81=1   82=3   83=1   84=2   85=3   86=2   87=4   88=1   89=4   90=1
   91=4   92=1
 SCF Done:  E(RCAM-B3LYP) =  -76.4323267038     a.u. after    9 cycles
            Convg  =    0.1159D-07                    33 Fock formations.
              S**2 =  0.0000                  -V/T =  2.0030
 Leave Link  508 at Wed Sep  3 18:43:47 2025, MaxMem= 12348030976 cpu:             137.0 elap:               2.7
 (Enter /home/hhratchian/gaussian/gdv-20250101-j30+/gdv/l601.exe)
 Copying SCF densities to generalized density rwf, IOpCl= 0 IROHF=0.
 
 **********************************************************************
 
               Population analysis using the SCF Density.
 
 **********************************************************************
 
 Orbital symmetries:
       Occupied  (A1) (A1) (B2) (A1) (B1)
       Virtual   (A1) (B2) (A1) (B1) (A1) (B2) (B2) (A1) (A2) (B1)
                 (A1) (B2) (A1) (B2) (B2) (A1) (A1) (A2) (B1) (A1)
                 (B1) (A1) (B1) (B2) (A2) (B2) (A1) (A1) (B2) (B1)
                 (B2) (A1) (A2) (B2) (A2) (A1) (B1) (A1) (B2) (B2)
                 (A1) (B1) (A1) (A2) (A1) (B1) (B2) (A1) (B2) (B1)
                 (A1) (A2) (B2) (B2) (A1) (B1) (A2) (B2) (A1) (B1)
                 (A2) (A1) (B1) (B2) (A1) (B2) (B2) (A2) (B2) (A1)
                 (B1) (A1) (A1) (B2) (B1) (A1) (B1) (A1) (A2) (B1)
                 (A2) (B2) (A1) (B2) (A1) (B2) (A1)
 The electronic state is 1-A1.
 Alpha  occ. eigenvalues --      -19.20077      -1.11712      -0.64402      -0.45820      -0.39601
 Alpha virt. eigenvalues --        0.00402       0.03420       0.10232       0.12026       0.13084
 Alpha virt. eigenvalues --        0.14536       0.18770       0.20139       0.22050       0.26295
 Alpha virt. eigenvalues --        0.26680       0.33253       0.37751       0.40042       0.51941
 Alpha virt. eigenvalues --        0.56242       0.62201       0.63177       0.63379       0.74560
 Alpha virt. eigenvalues --        0.76085       0.77279       0.81915       0.82606       0.83638
 Alpha virt. eigenvalues --        0.84793       0.89184       0.94147       0.94971       0.97840
 Alpha virt. eigenvalues --        1.04488       1.09337       1.09537       1.14185       1.40173
 Alpha virt. eigenvalues --        1.43979       1.49318       1.60826       1.64531       1.89216
 Alpha virt. eigenvalues --        1.96251       2.05696       2.11520       2.13786       2.20357
 Alpha virt. eigenvalues --        2.22307       2.22595       2.27022       2.48013       2.49091
 Alpha virt. eigenvalues --        2.60643       2.69800       2.72098       3.45123       3.58514
 Alpha virt. eigenvalues --        3.79993       3.80873       4.03813       4.05954       4.13230
 Alpha virt. eigenvalues --        4.17115       4.20836       4.22760       4.23153       4.39800
 Alpha virt. eigenvalues --        4.55375       4.95969       5.03042       5.16925       5.17564
 Alpha virt. eigenvalues --        5.29926       5.49144       5.85308       6.14522       6.33069
 Alpha virt. eigenvalues --        6.50622       6.70174       6.80803       6.88128       6.96976
 Alpha virt. eigenvalues --        7.05032       7.19162       7.30738       7.62519       7.71935
 Alpha virt. eigenvalues --        8.51637      16.72046
          Condensed to atoms (all electrons):
               1          2          3
     1  O    7.653298   0.292803   0.292803
     2  H    0.292803   0.623134  -0.035389
     3  H    0.292803  -0.035389   0.623134
 Mulliken charges:
               1
     1  O   -0.238904
     2  H    0.119452
     3  H    0.119452
 Sum of Mulliken charges=   0.00000
 Mulliken charges with hydrogens summed into heavy atoms:
               1
     1  O    0.000000
 Electronic spatial extent (au):  <R**2>=             19.4422
 Charge=              0.0000 electrons
 Dipole moment (field-independent basis, Debye):
    X=             -0.0000    Y=             -0.0000    Z=             -1.7331  Tot=              1.7331
 Quadrupole moment (field-independent basis, Debye-Ang):
   XX=             -7.7104   YY=             -4.2738   ZZ=             -6.6837
   XY=              0.0000   XZ=              0.0000   YZ=             -0.0000
 Traceless Quadrupole moment (field-independent basis, Debye-Ang):
   XX=             -1.4877   YY=              1.9488   ZZ=             -0.4611
   XY=              0.0000   XZ=              0.0000   YZ=             -0.0000
 Octapole moment (field-independent basis, Debye-Ang**2):
  XXX=              0.0000  YYY=             -0.0000  ZZZ=             -0.9389  XYY=             -0.0000
  XXY=             -0.0000  XXZ=             -0.2316  XZZ=              0.0000  YZZ=              0.0000
  YYZ=             -1.2036  XYZ=             -0.0000
 Hexadecapole moment (field-independent basis, Debye-Ang**3):
 XXXX=             -7.6504 YYYY=             -6.1807 ZZZZ=             -7.7657 XXXY=             -0.0000
 XXXZ=             -0.0000 YYYX=             -0.0000 YYYZ=              0.0000 ZZZX=             -0.0000
 ZZZY=             -0.0000 XXYY=             -2.6529 XXZZ=             -2.5956 YYZZ=             -2.1801
 XXYZ=             -0.0000 YYXZ=              0.0000 ZZXY=             -0.0000
 N-N=           9.643579 E-N=        -200.040489  KE=          76.207266
 Symmetry A1   KE=          67.905377
 Symmetry A2   KE=           0.000000
 Symmetry B1   KE=           4.510553
 Symmetry B2   KE=           3.791336
 No NMR shielding tensors so no spin-rotation constants.
 Leave Link  601 at Wed Sep  3 18:43:48 2025, MaxMem= 12348030976 cpu:               3.8 elap:               0.1
 (Enter /home/hhratchian/gaussian/gdv-20250101-j30+/gdv/l801.exe)
 DoSCS=F DFT=T ScalE2(SS,OS)=  1.000000  1.000000
 Range of M.O.s used for correlation:     1    92
 NBasis=    92 NAE=     5 NBE=     5 NFC=     0 NFV=     0
 NROrb=     92 NOA=     5 NOB=     5 NVA=    87 NVB=    87

 **** Warning!!: The largest alpha MO coefficient is  0.16547616D+02

 Leave Link  801 at Wed Sep  3 18:43:48 2025, MaxMem= 12348030976 cpu:               0.2 elap:               0.0
 (Enter /home/hhratchian/gaussian/gdv-20250101-j30+/gdv/l914.exe)
 RHF ground state
 Doing stability rather than CIS.
 DoSCS=F DFT=T ScalE2(SS,OS)=  1.000000  1.000000
   ScalD2(USS,UOS,TSS,TOS,w)=  1.000000  1.000000  1.000000  1.000000  1.000000
 Keep R1 and R2 ints in memory in symmetry-blocked form, NReq=133910540.
 FoFCou: FMM=F IPFlag=           0 FMFlag=           0 FMFlg1=           0
         NFxFlg=           0 DoJE=F BraDBF=F KetDBF=F FulRan=T
         wScrn=  0.000000 ICntrl=       600 IOpCl=  0 I1Cent=           0 NGrid=           0
         NMat0=    1 NMatS0=   4278 NMatT0=    0 NMatD0=    1 NMtDS0=    0 NMtDT0=    0
 Petite list used in FoFCou.
 MDV= 12348030976 DFT=T IDoStb=1 Mixed=T DoRPA=F DoScal=F NonHer=F
 Making orbital integer symmetry assigments:
 Orbital symmetries:
       Occupied  (A1) (A1) (B2) (A1) (B1)
       Virtual   (A1) (B2) (A1) (B1) (A1) (B2) (B2) (A1) (A2) (B1)
                 (A1) (B2) (A1) (B2) (B2) (A1) (A1) (A2) (B1) (A1)
                 (B1) (A1) (B1) (B2) (A2) (B2) (A1) (A1) (B2) (B1)
                 (B2) (A1) (A2) (B2) (A2) (A1) (B1) (A1) (B2) (B2)
                 (A1) (B1) (A1) (A2) (A1) (B1) (B2) (A1) (B2) (B1)
                 (A1) (A2) (B2) (B2) (A1) (B1) (A2) (B2) (A1) (B1)
                 (A2) (A1) (B1) (B2) (A1) (B2) (B2) (A2) (B2) (A1)
                 (B1) (A1) (A1) (B2) (B1) (A1) (B1) (A1) (A2) (B1)
                 (A2) (B2) (A1) (B2) (A1) (B2) (A1)
 The electronic state is 1-A1.
    24 initial guesses have been made.
 Convergence on wavefunction:    0.001000000000000
 Davidson Disk Diagonalization:  ConvIn= 1.00D-03 SkipCon=T Conv= 1.00D-03.
 Max sub-space:  1740 initial roots:    24 roots to seek:     1 dimension of matrix:          870
 Iteration     1 Dimension    24 NMult     0 NNew     24
 CISAX will form    24 AO SS matrices at one time.
 NMat=    24 NSing=    12 JSym2X=-1.
 New state      1 was old state      2
 Excitation Energies [eV] at current iteration:
 Root      1 :     7.075722988599513
 Root      2 :     7.583833079403552
 Root      3 :     8.794688336801720
 Root      4 :     8.819273664684593
 Root      5 :     8.893929968372467
 Root      6 :     9.345695574360947
 Root      7 :    10.120667433934139
 Root      8 :    10.247939346037722
 Root      9 :    10.333429553070850
 Root     10 :    10.857733764180157
 Root     11 :    10.873713327584550
 Root     12 :    10.897175163366077
 Root     13 :    11.161792319440179
 Root     14 :    11.188323321726939
 Root     15 :    11.425750730585452
 Root     16 :    11.604307936916694
 Root     17 :    11.746386563735999
 Root     18 :    12.051699265207455
 Root     19 :    12.159024146459499
 Root     20 :    12.185280021911638
 Root     21 :    12.195526935142505
 Root     22 :    12.542227026069197
 Root     23 :    12.856658294954125
 Root     24 :    14.639355972208385
 Iteration     2 Dimension    48 NMult    24 NNew     24
 CISAX will form    24 AO SS matrices at one time.
 NMat=    24 NSing=    12 JSym2X=-1.
 Root      1 not converged, maximum delta is    0.098331895240383
 Excitation Energies [eV] at current iteration:
 Root      1 :     6.821262167914456   Change is   -0.254460820685057
 Root      2 :     7.536889218293100   Change is   -0.046943861110453
 Root      3 :     8.499583799798504   Change is   -0.295104537003217
 Root      4 :     8.646937007815701   Change is   -0.172336656868891
 Root      5 :     8.857536920817145   Change is   -0.036393047555322
 Root      6 :     9.262601465247551   Change is   -0.083094109113397
 Root      7 :     9.624047616972813   Change is   -0.496619816961326
 Root      8 :     9.971670717698862   Change is   -0.276268628338860
 Root      9 :    10.214741822031939   Change is   -0.118687731038911
 Root     10 :    10.334791784633017   Change is   -0.538921542951534
 Root     11 :    10.600504089158981   Change is   -0.257229675021176
 Root     12 :    10.645507200912039   Change is   -0.251667962454036
 Root     13 :    10.851385517449248   Change is   -0.310406801990931
 Root     14 :    11.052948236845500   Change is   -0.372802493739953
 Root     15 :    11.076612928321950   Change is   -0.111710393404988
 Root     16 :    11.272810171441723   Change is   -0.473576392294276
 Root     17 :    11.449247681049393   Change is   -0.155060255867300
 Root     18 :    11.856035217193561   Change is   -0.195664048013893
 Root     19 :    12.067328734494298   Change is   -0.128198200648208
 Root     20 :    12.074451884017698   Change is   -0.084572262441802
 Root     21 :    12.108014297350628   Change is   -0.077265724561009
 Root     22 :    12.272481984776961   Change is   -0.269745041292236
 Root     23 :    12.476559081357992   Change is   -2.162796890850391
 Root     24 :    12.839566328120602   Change is   -0.017091966833523
 Iteration     3 Dimension    54 NMult    48 NNew      6
 CISAX will form     6 AO SS matrices at one time.
 NMat=     6 NSing=     3 JSym2X=-1.
 Root      1 not converged, maximum delta is    0.003022700388830
 Excitation Energies [eV] at current iteration:
 Root      1 :     6.819818909945191   Change is   -0.001443257969265
 Root      2 :     7.535860952327543   Change is   -0.001028265965557
 Root      3 :     8.486068560326517   Change is   -0.013515239471987
 Root      4 :     8.645419256701004   Change is   -0.001517751114698
 Root      5 :     8.857161703790320   Change is   -0.000375217026824
 Root      6 :     9.259064109991503   Change is   -0.003537355256047
 Iteration     4 Dimension    60 NMult    54 NNew      6
 CISAX will form     6 AO SS matrices at one time.
 NMat=     6 NSing=     3 JSym2X=-1.
 Root      1 has converged.
 Excitation Energies [eV] at current iteration:
 Root      1 :     6.819801653370876   Change is   -0.000017256574315
 Root      2 :     7.535842398708375   Change is   -0.000018553619167
 Root      3 :     8.485177441071441   Change is   -0.000891119255076
 Root      4 :     8.645402861977281   Change is   -0.000016394723723
 Root      5 :     8.857158198243310   Change is   -0.000003505547011
 Root      6 :     9.258886878578853   Change is   -0.000177231412650
 Convergence achieved on expansion vectors.
 1PDM for each excited state written to RWF  633
 Ground to excited state transition densities written to RWF  633

 ***********************************************************************
 Stability analysis using <AA,BB:AA,BB> singles matrix:
 ***********************************************************************

 Eigenvectors of the stability matrix:
 
 Eigenvector   1:      Triplet-B1   Eigenvalue= 0.2506231  <S**2>=2.000
       5 ->  6         0.63643
       5 ->  8        -0.22216
       5 -> 10        -0.18286
 The wavefunction is stable under the perturbations considered.
 Leave Link  914 at Wed Sep  3 18:43:53 2025, MaxMem= 12348030976 cpu:             297.7 elap:               5.6
 (Enter /home/hhratchian/gaussian/gdv-20250101-j30+/gdv/l508.exe)
 The wavefunction is already stable.
 Leave Link  508 at Wed Sep  3 18:43:53 2025, MaxMem= 12348030976 cpu:               0.1 elap:               0.0
 (Enter /home/hhratchian/gaussian/gdv-20250101-j30+/gdv/l601.exe)
 Copying SCF densities to generalized density rwf, IOpCl= 0 IROHF=0.
 
 **********************************************************************
 
               Population analysis using the SCF Density.
 
 **********************************************************************
 
 Orbital symmetries:
       Occupied  (A1) (A1) (B2) (A1) (B1)
       Virtual   (A1) (B2) (A1) (B1) (A1) (B2) (B2) (A1) (A2) (B1)
                 (A1) (B2) (A1) (B2) (B2) (A1) (A1) (A2) (B1) (A1)
                 (B1) (A1) (B1) (B2) (A2) (B2) (A1) (A1) (B2) (B1)
                 (B2) (A1) (A2) (B2) (A2) (A1) (B1) (A1) (B2) (B2)
                 (A1) (B1) (A1) (A2) (A1) (B1) (B2) (A1) (B2) (B1)
                 (A1) (A2) (B2) (B2) (A1) (B1) (A2) (B2) (A1) (B1)
                 (A2) (A1) (B1) (B2) (A1) (B2) (B2) (A2) (B2) (A1)
                 (B1) (A1) (A1) (B2) (B1) (A1) (B1) (A1) (A2) (B1)
                 (A2) (B2) (A1) (B2) (A1) (B2) (A1)
 The electronic state is 1-A1.
 Alpha  occ. eigenvalues --      -19.20077      -1.11712      -0.64402      -0.45820      -0.39601
 Alpha virt. eigenvalues --        0.00402       0.03420       0.10232       0.12026       0.13084
 Alpha virt. eigenvalues --        0.14536       0.18770       0.20139       0.22050       0.26295
 Alpha virt. eigenvalues --        0.26680       0.33253       0.37751       0.40042       0.51941
 Alpha virt. eigenvalues --        0.56242       0.62201       0.63177       0.63379       0.74560
 Alpha virt. eigenvalues --        0.76085       0.77279       0.81915       0.82606       0.83638
 Alpha virt. eigenvalues --        0.84793       0.89184       0.94147       0.94971       0.97840
 Alpha virt. eigenvalues --        1.04488       1.09337       1.09537       1.14185       1.40173
 Alpha virt. eigenvalues --        1.43979       1.49318       1.60826       1.64531       1.89216
 Alpha virt. eigenvalues --        1.96251       2.05696       2.11520       2.13786       2.20357
 Alpha virt. eigenvalues --        2.22307       2.22595       2.27022       2.48013       2.49091
 Alpha virt. eigenvalues --        2.60643       2.69800       2.72098       3.45123       3.58514
 Alpha virt. eigenvalues --        3.79993       3.80873       4.03813       4.05954       4.13230
 Alpha virt. eigenvalues --        4.17115       4.20836       4.22760       4.23153       4.39800
 Alpha virt. eigenvalues --        4.55375       4.95969       5.03042       5.16925       5.17564
 Alpha virt. eigenvalues --        5.29926       5.49144       5.85308       6.14522       6.33069
 Alpha virt. eigenvalues --        6.50622       6.70174       6.80803       6.88128       6.96976
 Alpha virt. eigenvalues --        7.05032       7.19162       7.30738       7.62519       7.71935
 Alpha virt. eigenvalues --        8.51637      16.72046
          Condensed to atoms (all electrons):
               1          2          3
     1  O    7.653298   0.292803   0.292803
     2  H    0.292803   0.623134  -0.035389
     3  H    0.292803  -0.035389   0.623134
 Mulliken charges:
               1
     1  O   -0.238904
     2  H    0.119452
     3  H    0.119452
 Sum of Mulliken charges=   0.00000
 Mulliken charges with hydrogens summed into heavy atoms:
               1
     1  O    0.000000
 Electronic spatial extent (au):  <R**2>=             19.4422
 Charge=              0.0000 electrons
 Dipole moment (field-independent basis, Debye):
    X=             -0.0000    Y=             -0.0000    Z=             -1.7331  Tot=              1.7331
 Quadrupole moment (field-independent basis, Debye-Ang):
   XX=             -7.7104   YY=             -4.2738   ZZ=             -6.6837
   XY=              0.0000   XZ=              0.0000   YZ=             -0.0000
 Traceless Quadrupole moment (field-independent basis, Debye-Ang):
   XX=             -1.4877   YY=              1.9488   ZZ=             -0.4611
   XY=              0.0000   XZ=              0.0000   YZ=             -0.0000
 Octapole moment (field-independent basis, Debye-Ang**2):
  XXX=              0.0000  YYY=             -0.0000  ZZZ=             -0.9389  XYY=             -0.0000
  XXY=             -0.0000  XXZ=             -0.2316  XZZ=              0.0000  YZZ=              0.0000
  YYZ=             -1.2036  XYZ=             -0.0000
 Hexadecapole moment (field-independent basis, Debye-Ang**3):
 XXXX=             -7.6504 YYYY=             -6.1807 ZZZZ=             -7.7657 XXXY=             -0.0000
 XXXZ=             -0.0000 YYYX=             -0.0000 YYYZ=              0.0000 ZZZX=             -0.0000
 ZZZY=             -0.0000 XXYY=             -2.6529 XXZZ=             -2.5956 YYZZ=             -2.1801
 XXYZ=             -0.0000 YYXZ=              0.0000 ZZXY=             -0.0000
 N-N=           9.643579 E-N=        -200.040489  KE=          76.207266
 Symmetry A1   KE=          67.905377
 Symmetry A2   KE=           0.000000
 Symmetry B1   KE=           4.510553
 Symmetry B2   KE=           3.791336
 No NMR shielding tensors so no spin-rotation constants.
 Leave Link  601 at Wed Sep  3 18:43:53 2025, MaxMem= 12348030976 cpu:               3.7 elap:               0.1
 (Enter /home/hhratchian/gaussian/gdv-20250101-j30+/gdv/local/l9999.exe)
 Unable to Open any file for archive entry.
 1\1\GINC-GNODE009\Stability\RCAM-B3LYP\GenECP\H2O1\AABOUTAKA\03-Sep-20
 25\0\\#p CAM-B3LYP/genecp stable=opt scf=qc guess=mix int=superfinegri
 d\\H2O — CAM-B3LYP/genecp q=0 m=1 [1/3: Stability]\\0,1\O,0,0.,0.,0.
 \H,0,0.758602,0.,0.504284\H,0,-0.758602,0.,0.504284\\Version=ES64L-GDV
 RevJ.30+\State=1-A1\HF=-76.4323267\RMSD=3.928e-10\Dipole=0.,0.,0.68184
 55\Quadrupole=1.4489136,-1.1060998,-0.3428138,0.,0.,0.\PG=C02V [C2(O1)
 ,SGV(H2)]\\@
 The archive entry for this job was punched.


 NO MATTER HOW THIN YOU SLICE IT, IT'S STILL BALONEY

                                   -- ALFRED E. SMITH
 Job cpu time:       0 days  0 hours  7 minutes 35.7 seconds.
 Elapsed time:       0 days  0 hours  0 minutes  9.3 seconds.
 File lengths (MBytes):  RWF=     92 Int=      0 D2E=      0 Chk=      3 Scr=      2
 Normal termination of Gaussian DV at Wed Sep  3 18:43:53 2025.
 Initial command:
 /home/hhratchian/gaussian/gdv-20250101-j30+/gdv/local/l1.exe "/scratch/aaboutaka/1590363/Gau-1892507.inp" -scrdir="/scratch/aaboutaka/1590363/"
 Default is to use a total of  56 processors:
                               56 via shared-memory
                                1 via Linda
 Entering Link 1 = /home/hhratchian/gaussian/gdv-20250101-j30+/gdv/local/l1.exe PID=   1893281.
  
 Copyright (c) 1988-2024, Gaussian, Inc.  All Rights Reserved.
  
 This is the private, development version of
 the Gaussian(R) DV system of programs. It is based on
 the Gaussian(R) 16 system (copyright 2016, Gaussian, Inc.),
 the Gaussian(R) 09 system (copyright 2009, Gaussian, Inc.),
 the Gaussian(R) 03 system (copyright 2003, Gaussian, Inc.),
 the Gaussian(R) 98 system (copyright 1998, Gaussian, Inc.),
 the Gaussian(R) 94 system (copyright 1995, Gaussian, Inc.),
 the Gaussian 92(TM) system (copyright 1992, Gaussian, Inc.),
 the Gaussian 90(TM) system (copyright 1990, Gaussian, Inc.),
 the Gaussian 88(TM) system (copyright 1988, Gaussian, Inc.),
 the Gaussian 86(TM) system (copyright 1986, Carnegie Mellon
 University), and the Gaussian 82(TM) system (copyright 1983,
 Carnegie Mellon University). Gaussian is a federally registered
 trademark of Gaussian, Inc.
  
 This software contains proprietary and confidential information,
 including trade secrets, belonging to Gaussian, Inc.
  
 This software is provided under written license and may be
 used, copied, transmitted, or stored only in accord with that
 written license.
  
 The following legend is applicable only to US Government
 contracts under FAR:
  
                    RESTRICTED RIGHTS LEGEND
  
 Use, reproduction and disclosure by the US Government is
 subject to restrictions as set forth in subparagraphs (a)
 and (c) of the Commercial Computer Software - Restricted
 Rights clause in FAR 52.227-19.
  
 Gaussian, Inc.
 340 Quinnipiac St., Bldg. 40, Wallingford CT 06492
  
  
 ---------------------------------------------------------------
 Warning -- This program may not be used in any manner that
 competes with the business of Gaussian, Inc. or will provide
 assistance to any competitor of Gaussian, Inc.  The licensee
 of this program is prohibited from giving any competitor of
 Gaussian, Inc. access to this program.  By using this program,
 the user acknowledges that Gaussian, Inc. is engaged in the
 business of creating and licensing software in the field of
 computational chemistry and represents and warrants to the
 licensee that it is not a competitor of Gaussian, Inc. and that
 it will not use this program in any manner prohibited above.
 ---------------------------------------------------------------
  

 Cite this work as:
 Gaussian Development Version, Revision J.30+,
 M. J. Frisch, G. W. Trucks, G. Scalmani, J. R. Cheeseman, X. Li, 
 J. Bloino, B. G. Janesko, A. V. Marenich, J. Zheng, F. Lipparini, 
 A. Jenkins, A. Liu, H. Liu, H. B. Schlegel, G. E. Scuseria, 
 M. A. Robb, V. Barone, G. A. Petersson, H. Nakatsuji, B. Mennucci, 
 C. Adamo, N. Rega, M. Caricato, H. P. Hratchian, J. V. Ortiz, 
 F. Pawlowski, A. F. Izmaylov, H. Hu, C. Liao, J. L. Sonnenberg, 
 D. Williams-Young, F. Ding, R. Gomperts, F. Egidi, J. Goings, 
 B. Peng, A. Petrone, T. Henderson, D. Ranasinghe, V. G. Zakrzewski, 
 J. Gao, G. Zheng, W. Liang, M. Hada, M. Ehara, K. Toyota, R. Fukuda, 
 J. Hasegawa, M. Ishida, T. Nakajima, Y. Honda, O. Kitao, H. Nakai, 
 T. Vreven, K. Throssell, J. A. Montgomery, Jr., J. E. Peralta, 
 F. Ogliaro, M. J. Bearpark, J. J. Heyd, E. N. Brothers, K. N. Kudin, 
 V. N. Staroverov, T. A. Keith, R. Kobayashi, J. Normand, 
 K. Raghavachari, A. P. Rendell, J. C. Burant, S. S. Iyengar, 
 M. Cossi, J. M. Millam, M. Klene, R. Cammi, R. L. Martin, O. Farkas, 
 J. B. Foresman, and D. J. Fox, Gaussian, Inc., Wallingford CT, 2024.
 
 *******************************************
 Gaussian DV:  ES64L-GDVRevJ.30+ 18-Dec-2024
                  3-Sep-2025 
 *******************************************
 %oldchk=H2O_CAM-B3LYP_genecp_q0_m1_stab.chk
 %chk=H2O_CAM-B3LYP_genecp_q0_m1.chk
 Copying data from "H2O_CAM-B3LYP_genecp_q0_m1_stab.chk" to current chk file "H2O_CAM-B3LYP_genecp_q0_m1.chk"
 IOpt=  2 FromEx=T IUOpen= 4 IOptOp= 5 NList=   0 IFRang= 0 IUIn= 4 IUOut= 2.
 ----------------------------------------------------------------------
 #p CAM-B3LYP guess=read chkbasis geom=allcheck Opt Freq int=superfineg
 rid scf=xqc
 ----------------------------------------------------------------------
 1/18=20,19=15,26=5,29=7,38=1/1,3;
 2/9=110,12=2/2;
 3/5=7,6=2,11=2,14=-4,25=1,30=1,67=1,71=1,74=-40,75=-7,116=-2/1,2,3;
 4/5=1/1;
 5/5=2,8=3,13=1,38=6/2,8;
 6/7=2,8=2,9=2,10=2,28=1/1;
 7//1,2,3,16;
 1/18=20,19=15,26=5/3(2);
 2/9=110/2;
 99//99;
 2/9=110/2;
 3/5=7,6=1,11=2,14=-2,25=1,30=1,71=1,74=-40,75=-7,82=7,187=7/1,2,3;
 4/5=5,16=3,69=1/1;
 5/5=2,8=3,13=1,38=5/2,8;
 7//1,2,3,16;
 1/18=20,19=15,26=5/3(-5);
 2/9=110/2;
 6/7=2,8=2,9=2,10=2,19=2,28=1/1;
 99/9=1/99;
 Leave Link    1 at Wed Sep  3 18:43:54 2025, MaxMem= 12348030976 cpu:               0.2 elap:               0.1
 (Enter /home/hhratchian/gaussian/gdv-20250101-j30+/gdv/local/l101.exe)
 
  Hrant - IAPOps =                         0
  Hrant - IAPOp1 =                         0
  Hrant - IAPOp2 =                         0
  Hrant - DoAP   =   F
 
 Structure from the checkpoint file:  "H2O_CAM-B3LYP_genecp_q0_m1.chk"
 -------------------------------------------------
 H2O — CAM-B3LYP/genecp q=0 m=1 [1/3: Stability]
 -------------------------------------------------
 Charge =     0 Multiplicity =     1
 Z-Matrix found in chk file.
 O,0,0.,0.,0.
 H,0,0.758602,0.,0.504284
 H,0,-0.758602,0.,0.504284
 
 Recover connectivity data from disk.
 Initializing the GIC definitions file.
 ITRead=  0  0  0
 MicOpt= -1 -1 -1
 NAtoms=      3 NQM=        3 NQMF=       0 NMMI=      0 NMMIF=      0
                NMic=       0 NMicF=      0.
                    Isotopes and Nuclear Properties:
 (Nuclear quadrupole moments (NQMom) in fm**2, nuclear magnetic moments (NMagM)
  in nuclear magnetons)

  Atom         1           2           3
 IAtWgt=          16           1           1
 AtmWgt=  15.9949146   1.0078250   1.0078250
 NucSpn=           0           1           1
 AtZEff=    5.600000    1.000000    1.000000
 NQMom=    0.0000000   0.0000000   0.0000000
 NMagM=    0.0000000   2.7928460   2.7928460
 AtZNuc=   8.0000000   1.0000000   1.0000000
 Leave Link  101 at Wed Sep  3 18:44:02 2025, MaxMem= 12348030976 cpu:               9.0 elap:               8.8
 (Enter /home/hhratchian/gaussian/gdv-20250101-j30+/gdv/l103.exe)

 GradGradGradGradGradGradGradGradGradGradGradGradGradGradGradGradGradGrad
 Berny optimization.
 Initialization pass.
                           ----------------------------
                           !    Initial Parameters    !
                           ! (Angstroms and Degrees)  !
 --------------------------                            --------------------------
 ! Name  Definition              Value          Derivative Info.                !
 --------------------------------------------------------------------------------
 ! R1    R(1,2)                  0.9109         estimate D2E/DX2                !
 ! R2    R(1,3)                  0.9109         estimate D2E/DX2                !
 ! A1    A(2,1,3)              112.7717         estimate D2E/DX2                !
 --------------------------------------------------------------------------------
 Trust Radius=3.00D-01 FncErr=1.00D-07 GrdErr=1.00D-07 EigMax=2.50D+02 EigMin=1.00D-04
 Number of steps in this run=     20 maximum allowed number of steps=    100.
 GradGradGradGradGradGradGradGradGradGradGradGradGradGradGradGradGradGrad

 Leave Link  103 at Wed Sep  3 18:44:03 2025, MaxMem= 12348030976 cpu:               0.1 elap:               0.0
 (Enter /home/hhratchian/gaussian/gdv-20250101-j30+/gdv/l202.exe)
                          Input orientation:                          
 ---------------------------------------------------------------------
 Center     Atomic      Atomic             Coordinates (Angstroms)
 Number     Number       Type             X           Y           Z
 ---------------------------------------------------------------------
      1          8           0       -0.000000   -0.000000    0.000000
      2          1           0        0.758602    0.000000    0.504284
      3          1           0       -0.758602   -0.000000    0.504284
 ---------------------------------------------------------------------
                    Distance matrix (angstroms):
                    1          2          3
     1  O    0.000000
     2  H    0.910922   0.000000
     3  H    0.910922   1.517204   0.000000
 Stoichiometry    H2O
 Framework group  C2V[C2(O),SGV(H2)]
 Deg. of freedom     2
 Full point group                 C2V     NOp   4
 RotChk:  IX=0 Diff= 7.38D-16
 Largest Abelian subgroup         C2V     NOp   4
 Largest concise Abelian subgroup C2      NOp   2
                         Standard orientation:                         
 ---------------------------------------------------------------------
 Center     Atomic      Atomic             Coordinates (Angstroms)
 Number     Number       Type             X           Y           Z
 ---------------------------------------------------------------------
      1          8           0       -0.000000    0.000000    0.100857
      2          1           0        0.000000    0.758602   -0.403427
      3          1           0       -0.000000   -0.758602   -0.403427
 ---------------------------------------------------------------------
 Rotational constants (GHZ):        1110.1894251         435.6864908         312.8935057
 Leave Link  202 at Wed Sep  3 18:44:03 2025, MaxMem= 12348030976 cpu:               0.8 elap:               0.0
 (Enter /home/hhratchian/gaussian/gdv-20250101-j30+/gdv/local/l301.exe)
 Basis read from chk: "H2O_CAM-B3LYP_genecp_q0_m1.chk" (5D, 7F)
 Pseudo-potential data read from chk file.
 There are    42 symmetry adapted cartesian basis functions of A1  symmetry.
 There are    12 symmetry adapted cartesian basis functions of A2  symmetry.
 There are    20 symmetry adapted cartesian basis functions of B1  symmetry.
 There are    31 symmetry adapted cartesian basis functions of B2  symmetry.
 There are    35 symmetry adapted basis functions of A1  symmetry.
 There are    12 symmetry adapted basis functions of A2  symmetry.
 There are    18 symmetry adapted basis functions of B1  symmetry.
 There are    27 symmetry adapted basis functions of B2  symmetry.
    92 basis functions,   126 primitive gaussians,   105 cartesian basis functions
     5 alpha electrons        5 beta electrons
       nuclear repulsion energy         9.6435792538 Hartrees.
 IExCor=   2004019 DFT=T Ex+Corr=CAM-B3LYP ScaHFX=  1.000000
 ScaDFX=  1.000000  1.000000  1.000000  0.810000  1.000000  0.000000
 ScaDFX=  0.000000  0.000000  0.000000  0.000000  0.000000  0.000000
 Grid=SuperFine IRanWt=     -1 IRanGd=            0 ICorTp=0 IEDCtl=  2004
 HFx  wShort=  0.000000 wLong=  0.330000 cFull=  0.190000 cShort=  0.000000 cLong=  0.460000
 DFx  wShort=  0.330000 wLong=  0.000000 cFull=  0.350000 cShort=  0.460000 cLong=  0.000000
 NAtoms=    3 NActive=    3 NUniq=    2 SFac= 2.25D+00 NAtFMM=   60 NAOKFM=F Big=F
 Integral buffers will be    131072 words long.
 Raffenetti 2 integral format.
 Two-electron integral symmetry is turned on.
 No density basis found on file 200724.
 Leave Link  301 at Wed Sep  3 18:44:03 2025, MaxMem= 12348030976 cpu:               0.2 elap:               0.1
 (Enter /home/hhratchian/gaussian/gdv-20250101-j30+/gdv/l302.exe)
 NPDir=0 NMtPBC=     1 NCelOv=     1 NCel=       1 NClECP=     1 NCelD=      1
         NCelK=      1 NCelE2=     1 NClLst=     1 CellRange=     0.0.
 One-electron integrals computed using PRISM.
 One-electron integral symmetry used in STVInt
   4 Symmetry operations used in ECPInt.
 ECPInt:  NShTT=     528 NPrTT=    1270 LenC2=     529 LenP2D=    1253.
 LDataN:  DoStor=T MaxTD1= 6 Len=  172
 NBasis=    92 RedAO= T EigKep=  3.31D-04  NBF=    35    12    18    27
 NBsUse=    92 1.00D-06 EigRej= -1.00D+00 NBFU=    35    12    18    27
 Precomputing XC quadrature grid using
 IXCGrd=   9 Grid=SuperFine IRanWt=          -1 IRanGd=           0 AccXCQ= 0.00D+00.
 Generated NRdTot=       0 NPtTot=      198711 NUsed=           0 NTot=          64
 NSgBfM=   105   105   105   105   105 MxSgAt=     3 MxSgA2=     3 SizInc=   0.000
 NMBTot=     1942 MaxBatPerAtom=      131 MaxMicBPerAtom=      654 NBfPt=            16854118.
 Leave Link  302 at Wed Sep  3 18:44:03 2025, MaxMem= 12348030976 cpu:               6.6 elap:               0.2
 (Enter /home/hhratchian/gaussian/gdv-20250101-j30+/gdv/l303.exe)
 DipDrv:  MaxL=1.
 Leave Link  303 at Wed Sep  3 18:44:03 2025, MaxMem= 12348030976 cpu:               1.9 elap:               0.1
 (Enter /home/hhratchian/gaussian/gdv-20250101-j30+/gdv/l401.exe)
 Initial guess from the checkpoint file:  "H2O_CAM-B3LYP_genecp_q0_m1.chk"
 B after Tr=     0.000000   -0.000000    0.000000
         Rot=    1.000000   -0.000000   -0.000000   -0.000000 Ang=   0.00 deg.
 AO Guess basis will be translated and rotated to current coordinates.
 JPrj=2 DoOrth=T DoCkMO=T.
 Initial guess orbital symmetries:
       Occupied  (A1) (A1) (B2) (A1) (B1)
       Virtual   (A1) (B2) (A1) (B1) (A1) (B2) (B2) (A1) (A2) (B1)
                 (A1) (B2) (A1) (B2) (B2) (A1) (A1) (A2) (B1) (A1)
                 (B1) (A1) (B1) (B2) (A2) (B2) (A1) (A1) (B2) (B1)
                 (B2) (A1) (A2) (B2) (A2) (A1) (B1) (A1) (B2) (B2)
                 (A1) (B1) (A1) (A2) (A1) (B1) (B2) (A1) (B2) (B1)
                 (A1) (A2) (B2) (B2) (A1) (B1) (A2) (B2) (A1) (B1)
                 (A2) (A1) (B1) (B2) (A1) (B2) (B2) (A2) (B2) (A1)
                 (B1) (A1) (A1) (B2) (B1) (A1) (B1) (A1) (A2) (B1)
                 (A2) (B2) (A1) (B2) (A1) (B2) (A1)
 The electronic state of the initial guess is 1-A1.
 Leave Link  401 at Wed Sep  3 18:44:03 2025, MaxMem= 12348030976 cpu:               2.0 elap:               0.1
 (Enter /home/hhratchian/gaussian/gdv-20250101-j30+/gdv/local/l502.exe)
 Keep R1 ints in memory in symmetry-blocked form, NReq=71129321.
 FoFCou: FMM=F IPFlag=           0 FMFlag=           0 FMFlg1=           0
         NFxFlg=           0 DoJE=F BraDBF=F KetDBF=F FulRan=T
         wScrn=  0.000000 ICntrl=       600 IOpCl=  0 I1Cent=           0 NGrid=           0
         NMat0=    1 NMatS0=   4278 NMatT0=    0 NMatD0=    1 NMtDS0=    0 NMtDT0=    0
 Petite list used in FoFCou.
 Closed shell SCF:
 Using DIIS extrapolation, IDIIS=  1040.
 NGot= 12348030976 LenX= 12345655041 LenY= 12345643575
 Requested convergence on RMS density matrix=1.00D-08 within  32 cycles.
 Requested convergence on MAX density matrix=1.00D-06.
 Requested convergence on             energy=1.00D-06.
 No special actions if energy rises.
 
  Hrant - CycOpn.
 

 Cycle   1  Pass 1  IDiag  1:
 E= -76.4323267038374    
 DIIS: error= 1.12D-09 at cycle   1 NSaved=   1.
 NSaved= 1 IEnMin= 1 EnMin= -76.4323267038374     IErMin= 1 ErrMin= 1.12D-09
 ErrMax= 1.12D-09  0.00D+00 EMaxC= 1.00D-01 BMatC= 3.33D-17 BMatP= 3.33D-17
 Rises=F IDIUse=1 WtCom= 1.00D+00 WtEn= 0.00D+00
 Coeff-Com:  0.100D+01
 Coeff:      0.100D+01
 Gap=     0.400 Goal=   None    Shift=    0.000
 RMSDP=8.45D-11 MaxDP=2.50D-09              OVMax= 5.13D-10

 SCF Done:  E(RCAM-B3LYP) =  -76.4323267038     A.U. after    1 cycles
            NFock=  1  Conv=0.85D-10     -V/T= 2.0030
 KE=          76.207266 PE=        -200.040490 EE=          37.757318
 Leave Link  502 at Wed Sep  3 18:44:04 2025, MaxMem= 12348030976 cpu:              18.4 elap:               0.6
 (Enter /home/hhratchian/gaussian/gdv-20250101-j30+/gdv/l508.exe)
 QCSCF skips out because SCF is already converged.
 Leave Link  508 at Wed Sep  3 18:44:04 2025, MaxMem= 12348030976 cpu:               0.7 elap:               0.0
 (Enter /home/hhratchian/gaussian/gdv-20250101-j30+/gdv/l601.exe)
 Copying SCF densities to generalized density rwf, IOpCl= 0 IROHF=0.
 
 **********************************************************************
 
               Population analysis using the SCF Density.
 
 **********************************************************************
 
 Orbital symmetries:
       Occupied  (A1) (A1) (B2) (A1) (B1)
       Virtual   (A1) (B2) (A1) (B1) (A1) (B2) (B2) (A1) (A2) (B1)
                 (A1) (B2) (A1) (B2) (B2) (A1) (A1) (A2) (B1) (A1)
                 (B1) (A1) (B1) (B2) (A2) (B2) (A1) (A1) (B2) (B1)
                 (B2) (A1) (A2) (B2) (A2) (A1) (B1) (A1) (B2) (B2)
                 (A1) (B1) (A1) (A2) (A1) (B1) (B2) (A1) (B2) (B1)
                 (A1) (A2) (B2) (B2) (A1) (B1) (A2) (B2) (A1) (B1)
                 (A2) (A1) (B1) (B2) (A1) (B2) (B2) (A2) (B2) (A1)
                 (B1) (A1) (A1) (B2) (B1) (A1) (B1) (A1) (A2) (B1)
                 (A2) (B2) (A1) (B2) (A1) (B2) (A1)
 The electronic state is 1-A1.
 Alpha  occ. eigenvalues --      -19.20077      -1.11712      -0.64402      -0.45820      -0.39601
 Alpha virt. eigenvalues --        0.00402       0.03420       0.10232       0.12026       0.13084
 Alpha virt. eigenvalues --        0.14536       0.18770       0.20139       0.22050       0.26295
 Alpha virt. eigenvalues --        0.26680       0.33253       0.37751       0.40042       0.51941
 Alpha virt. eigenvalues --        0.56242       0.62201       0.63177       0.63379       0.74560
 Alpha virt. eigenvalues --        0.76085       0.77279       0.81915       0.82606       0.83638
 Alpha virt. eigenvalues --        0.84793       0.89184       0.94147       0.94971       0.97840
 Alpha virt. eigenvalues --        1.04488       1.09337       1.09537       1.14185       1.40173
 Alpha virt. eigenvalues --        1.43979       1.49318       1.60826       1.64531       1.89216
 Alpha virt. eigenvalues --        1.96251       2.05696       2.11520       2.13786       2.20357
 Alpha virt. eigenvalues --        2.22307       2.22595       2.27022       2.48013       2.49091
 Alpha virt. eigenvalues --        2.60643       2.69800       2.72098       3.45123       3.58514
 Alpha virt. eigenvalues --        3.79993       3.80873       4.03813       4.05954       4.13230
 Alpha virt. eigenvalues --        4.17115       4.20836       4.22760       4.23153       4.39800
 Alpha virt. eigenvalues --        4.55375       4.95969       5.03042       5.16925       5.17564
 Alpha virt. eigenvalues --        5.29926       5.49144       5.85308       6.14522       6.33069
 Alpha virt. eigenvalues --        6.50622       6.70174       6.80803       6.88128       6.96976
 Alpha virt. eigenvalues --        7.05032       7.19162       7.30738       7.62519       7.71935
 Alpha virt. eigenvalues --        8.51637      16.72046
          Condensed to atoms (all electrons):
               1          2          3
     1  O    7.653298   0.292803   0.292803
     2  H    0.292803   0.623134  -0.035389
     3  H    0.292803  -0.035389   0.623134
 Mulliken charges:
               1
     1  O   -0.238904
     2  H    0.119452
     3  H    0.119452
 Sum of Mulliken charges=   0.00000
 Mulliken charges with hydrogens summed into heavy atoms:
               1
     1  O    0.000000
 Electronic spatial extent (au):  <R**2>=             19.4422
 Charge=              0.0000 electrons
 Dipole moment (field-independent basis, Debye):
    X=             -0.0000    Y=             -0.0000    Z=             -1.7331  Tot=              1.7331
 Quadrupole moment (field-independent basis, Debye-Ang):
   XX=             -7.7104   YY=             -4.2738   ZZ=             -6.6837
   XY=              0.0000   XZ=              0.0000   YZ=              0.0000
 Traceless Quadrupole moment (field-independent basis, Debye-Ang):
   XX=             -1.4877   YY=              1.9488   ZZ=             -0.4611
   XY=              0.0000   XZ=              0.0000   YZ=              0.0000
 Octapole moment (field-independent basis, Debye-Ang**2):
  XXX=              0.0000  YYY=             -0.0000  ZZZ=             -0.9389  XYY=             -0.0000
  XXY=              0.0000  XXZ=             -0.2316  XZZ=              0.0000  YZZ=             -0.0000
  YYZ=             -1.2036  XYZ=             -0.0000
 Hexadecapole moment (field-independent basis, Debye-Ang**3):
 XXXX=             -7.6504 YYYY=             -6.1807 ZZZZ=             -7.7657 XXXY=             -0.0000
 XXXZ=             -0.0000 YYYX=             -0.0000 YYYZ=              0.0000 ZZZX=             -0.0000
 ZZZY=              0.0000 XXYY=             -2.6529 XXZZ=             -2.5956 YYZZ=             -2.1801
 XXYZ=              0.0000 YYXZ=              0.0000 ZZXY=             -0.0000
 N-N=           9.643579 E-N=        -200.040490  KE=          76.207266
 Symmetry A1   KE=          67.905377
 Symmetry A2   KE=           0.000000
 Symmetry B1   KE=           4.510553
 Symmetry B2   KE=           3.791336
 No NMR shielding tensors so no spin-rotation constants.
 Leave Link  601 at Wed Sep  3 18:44:04 2025, MaxMem= 12348030976 cpu:               5.9 elap:               0.2
 (Enter /home/hhratchian/gaussian/gdv-20250101-j30+/gdv/l701.exe)
 ... and contract with generalized density number  0.
 Compute integral first derivatives.
   4 Symmetry operations used in ECPInt.
 ECPInt:  NShTT=     528 NPrTT=    1270 LenC2=     529 LenP2D=    1253.
 LDataN:  DoStor=T MaxTD1= 7 Len=  274
 Leave Link  701 at Wed Sep  3 18:44:04 2025, MaxMem= 12348030976 cpu:               7.2 elap:               0.2
 (Enter /home/hhratchian/gaussian/gdv-20250101-j30+/gdv/l702.exe)
 L702 exits ... SP integral derivatives will be done elsewhere.
 Leave Link  702 at Wed Sep  3 18:44:04 2025, MaxMem= 12348030976 cpu:               0.2 elap:               0.0
 (Enter /home/hhratchian/gaussian/gdv-20250101-j30+/gdv/l703.exe)
 Integral derivatives from FoFJK, PRISM(SPDF).
 Compute integral first derivatives, UseDBF=F ICtDFT=           0.
 Calling FoFJK, ICntrl=      2127 FMM=F ISym2X=1 I1Cent= 0 IOpClX= 0 NMat=1 NMatS=1 NMatT=0.
 FoFJK:  IHMeth= 1 ICntrl=    2127 DoSepK=T KAlg= 0 I1Cent=           0 FoldK=F
 IRaf=         1 NMat=       1 IRICut=       1 DoRegI=T DoRafI=F ISym2E= 1 IDoP0=0 IntGTp=1.
 FoFCou: FMM=F IPFlag=           0 FMFlag=      100000 FMFlg1=         800
         NFxFlg=           0 DoJE=F BraDBF=F KetDBF=F FulRan=T
         wScrn=  0.000000 ICntrl=      2527 IOpCl=  0 I1Cent=           0 NGrid=           0
         NMat0=    1 NMatS0=      1 NMatT0=    0 NMatD0=    1 NMtDS0=    0 NMtDT0=    0
 Petite list used in FoFCou.
 Leave Link  703 at Wed Sep  3 18:44:05 2025, MaxMem= 12348030976 cpu:              32.1 elap:               0.8
 (Enter /home/hhratchian/gaussian/gdv-20250101-j30+/gdv/l716.exe)
 Dipole        =-3.20006005D-17 0.00000000D+00-6.81845469D-01
 ***** Axes restored to original set *****
 -------------------------------------------------------------------
 Center     Atomic                   Forces (Hartrees/Bohr)
 Number     Number              X              Y              Z
 -------------------------------------------------------------------
      1        8          -0.000000000   -0.000000000   -0.074384890
      2        1           0.042076389    0.000000000    0.037192445
      3        1          -0.042076389    0.000000000    0.037192445
 -------------------------------------------------------------------
 Cartesian Forces:  Max     0.074384890 RMS     0.036271373
 Leave Link  716 at Wed Sep  3 18:44:05 2025, MaxMem= 12348030976 cpu:               0.1 elap:               0.0
 (Enter /home/hhratchian/gaussian/gdv-20250101-j30+/gdv/l103.exe)

 GradGradGradGradGradGradGradGradGradGradGradGradGradGradGradGradGradGrad
 Berny optimization.
 FormGI is forming the generalized inverse of G from B-inverse, IUseBI=4.
 NTrRot=    -1 NTRed=     3 NAtoms=     3 NSkip=     0 NRank=     3 IsLin=F EigSml=8.5452D-01
 Internal  Forces:  Max     0.055630201 RMS     0.046058700
 Search for a local minimum.
 Step number   1 out of a maximum of   20
 All quantities printed in internal units (Hartrees-Bohrs-Radians)
 RMS Force = .46059D-01 SwitMx=.10000D-02 MixMth= 1
 Mixed Optimization -- RFO/linear search
 Second derivative matrix not updated -- first step.
 The second derivative matrix:
                          R1        R2        A1
           R1           0.67525
           R2           0.00000   0.67525
           A1           0.00000   0.00000   0.16000
 ITU=  0
     Eigenvalues ---    0.16000   0.67525   0.67525
 RFO step:  Lambda=-1.00593216D-02 EMin= 1.60000000D-01
 Linear search not attempted -- first point.
 GrdOpt: GIC=T ITstSp=  0 NP=   1 DidLin=F DidDIS=F IDoGRo=0 IDoRot=0
         ISwap=1 XLin= 0.000 DXMaxT= 0.300
 Iteration  1 RMS(Cart)=  0.03095304 RMS(Int)=  0.00227870
 Iteration  2 RMS(Cart)=  0.00144455 RMS(Int)=  0.00000269
 Iteration  3 RMS(Cart)=  0.00000107 RMS(Int)=  0.00000000
 Iteration  4 RMS(Cart)=  0.00000000 RMS(Int)=  0.00000000
 ClnCor:  largest displacement from symmetrization is 2.48D-16 for atom     3.
 Variable       Old X    -DE/DX   Delta X   Delta X   Delta X     New X
                                 (Linear)    (Quad)   (Total)
    R1        1.72139   0.05563   0.00000   0.08118   0.08118   1.80257
    R2        1.72139   0.05563   0.00000   0.08118   0.08118   1.80257
    A1        1.96824  -0.01322   0.00000  -0.07774  -0.07774   1.89050
         Item               Value     Threshold  Converged?
 Maximum Force            0.055630     0.000450     NO 
 RMS     Force            0.046059     0.000300     NO 
 Maximum Displacement     0.068346     0.001800     NO 
 RMS     Displacement     0.053355     0.001200     NO 
 Predicted change in Energy=-5.126343D-03
 Lowest energy point so far.  Saving SCF results.
 GradGradGradGradGradGradGradGradGradGradGradGradGradGradGradGradGradGrad

 Leave Link  103 at Wed Sep  3 18:44:05 2025, MaxMem= 12348030976 cpu:               1.2 elap:               0.1
 (Enter /home/hhratchian/gaussian/gdv-20250101-j30+/gdv/l202.exe)
                          Input orientation:                          
 ---------------------------------------------------------------------
 Center     Atomic      Atomic             Coordinates (Angstroms)
 Number     Number       Type             X           Y           Z
 ---------------------------------------------------------------------
      1          8           0       -0.000000    0.000000   -0.036167
      2          1           0        0.773255    0.000000    0.522368
      3          1           0       -0.773255   -0.000000    0.522368
 ---------------------------------------------------------------------
                    Distance matrix (angstroms):
                    1          2          3
     1  O    0.000000
     2  H    0.953878   0.000000
     3  H    0.953878   1.546510   0.000000
 Stoichiometry    H2O
 Framework group  C2V[C2(O),SGV(H2)]
 Deg. of freedom     2
 Full point group                 C2V     NOp   4
 RotChk:  IX=0 Diff= 4.20D-16
 Largest Abelian subgroup         C2V     NOp   4
 Largest concise Abelian subgroup C2      NOp   2
                         Standard orientation:                         
 ---------------------------------------------------------------------
 Center     Atomic      Atomic             Coordinates (Angstroms)
 Number     Number       Type             X           Y           Z
 ---------------------------------------------------------------------
      1          8           0        0.000000    0.000000    0.111707
      2          1           0       -0.000000    0.773255   -0.446828
      3          1           0       -0.000000   -0.773255   -0.446828
 ---------------------------------------------------------------------
 Rotational constants (GHZ):         904.9973820         419.3307367         286.5552831
 Leave Link  202 at Wed Sep  3 18:44:06 2025, MaxMem= 12348030976 cpu:               1.0 elap:               0.1
 (Enter /home/hhratchian/gaussian/gdv-20250101-j30+/gdv/local/l301.exe)
 Basis read from rwf:  (5D, 7F)
 Pseudo-potential data read from rwf file.
 There are    42 symmetry adapted cartesian basis functions of A1  symmetry.
 There are    12 symmetry adapted cartesian basis functions of A2  symmetry.
 There are    20 symmetry adapted cartesian basis functions of B1  symmetry.
 There are    31 symmetry adapted cartesian basis functions of B2  symmetry.
 There are    35 symmetry adapted basis functions of A1  symmetry.
 There are    12 symmetry adapted basis functions of A2  symmetry.
 There are    18 symmetry adapted basis functions of B1  symmetry.
 There are    27 symmetry adapted basis functions of B2  symmetry.
    92 basis functions,   126 primitive gaussians,   105 cartesian basis functions
     5 alpha electrons        5 beta electrons
       nuclear repulsion energy         9.2183959046 Hartrees.
 IExCor=   2004019 DFT=T Ex+Corr=CAM-B3LYP ScaHFX=  1.000000
 ScaDFX=  1.000000  1.000000  1.000000  0.810000  1.000000  0.000000
 ScaDFX=  0.000000  0.000000  0.000000  0.000000  0.000000  0.000000
 Grid=SuperFine IRanWt=     -1 IRanGd=            0 ICorTp=0 IEDCtl=  2004
 HFx  wShort=  0.000000 wLong=  0.330000 cFull=  0.190000 cShort=  0.000000 cLong=  0.460000
 DFx  wShort=  0.330000 wLong=  0.000000 cFull=  0.350000 cShort=  0.460000 cLong=  0.000000
 NAtoms=    3 NActive=    3 NUniq=    2 SFac= 2.25D+00 NAtFMM=   60 NAOKFM=F Big=F
 Integral buffers will be    131072 words long.
 Raffenetti 2 integral format.
 Two-electron integral symmetry is turned on.
 No density basis found on file    724.
 Leave Link  301 at Wed Sep  3 18:44:06 2025, MaxMem= 12348030976 cpu:               0.2 elap:               0.1
 (Enter /home/hhratchian/gaussian/gdv-20250101-j30+/gdv/l302.exe)
 NPDir=0 NMtPBC=     1 NCelOv=     1 NCel=       1 NClECP=     1 NCelD=      1
         NCelK=      1 NCelE2=     1 NClLst=     1 CellRange=     0.0.
 One-electron integrals computed using PRISM.
 One-electron integral symmetry used in STVInt
   4 Symmetry operations used in ECPInt.
 ECPInt:  NShTT=     528 NPrTT=    1270 LenC2=     529 LenP2D=    1253.
 LDataN:  DoStor=T MaxTD1= 6 Len=  172
 NBasis=    92 RedAO= T EigKep=  3.75D-04  NBF=    35    12    18    27
 NBsUse=    92 1.00D-06 EigRej= -1.00D+00 NBFU=    35    12    18    27
 Precomputing XC quadrature grid using
 IXCGrd=   9 Grid=SuperFine IRanWt=          -1 IRanGd=           0 AccXCQ= 0.00D+00.
 Generated NRdTot=       0 NPtTot=      198881 NUsed=           0 NTot=          64
 NSgBfM=   105   105   105   105   105 MxSgAt=     3 MxSgA2=     3 SizInc=   0.000
 NMBTot=     1936 MaxBatPerAtom=      131 MaxMicBPerAtom=      653 NBfPt=            16897445.
 Leave Link  302 at Wed Sep  3 18:44:06 2025, MaxMem= 12348030976 cpu:               6.0 elap:               0.2
 (Enter /home/hhratchian/gaussian/gdv-20250101-j30+/gdv/l303.exe)
 DipDrv:  MaxL=1.
 Leave Link  303 at Wed Sep  3 18:44:06 2025, MaxMem= 12348030976 cpu:               0.9 elap:               0.1
 (Enter /home/hhratchian/gaussian/gdv-20250101-j30+/gdv/l401.exe)
 Initial guess from the checkpoint file:  "H2O_CAM-B3LYP_genecp_q0_m1.chk"
 B after Tr=    -0.000000   -0.000000    0.000000
         Rot=    1.000000   -0.000000    0.000000   -0.000000 Ang=   0.00 deg.
 AO Guess basis will be translated and rotated to current coordinates.
 JPrj=2 DoOrth=T DoCkMO=T.
 Initial guess orbital symmetries:
       Occupied  (A1) (A1) (B2) (A1) (B1)
       Virtual   (A1) (B2) (A1) (B1) (A1) (B2) (B2) (A1) (A2) (B1)
                 (A1) (B2) (A1) (B2) (B2) (A1) (A1) (A2) (B1) (A1)
                 (B1) (A1) (B1) (B2) (A2) (B2) (A1) (A1) (B2) (B1)
                 (B2) (A1) (A2) (B2) (A2) (A1) (B1) (A1) (B2) (B2)
                 (A1) (B1) (A1) (A2) (A1) (B1) (B2) (A1) (B2) (B1)
                 (A1) (A2) (B2) (B2) (A1) (B1) (A2) (B2) (A1) (B1)
                 (A2) (A1) (B1) (B2) (A1) (B2) (B2) (A2) (B2) (A1)
                 (B1) (A1) (A1) (B2) (B1) (A1) (B1) (A1) (A2) (B1)
                 (A2) (B2) (A1) (B2) (A1) (B2) (A1)
 The electronic state of the initial guess is 1-A1.
 Generating alternative initial guess.
 ExpMin= 2.53D-02 ExpMax= 1.53D+04 ExpMxC= 5.22D+02 IAcc=3 Grid=SuperFine AccDes= 0.00D+00
 Harris functional with IExCor=10009 and Grid=SuperFine diagonalized for initial guess.
 HarFok:  IExCor=   10009 AccDes= 0.00D+00 Grid=SuperFine IDoV= 1 UseB2=F ITyADJ=14 ICtDFT=  3500011
 FoFCou: FMM=F IPFlag=           0 FMFlag=      100000 FMFlg1=           0
         NFxFlg=           0 DoJE=T BraDBF=F KetDBF=T FulRan=T
         wScrn=  0.000000 ICntrl=       500 IOpCl=  0 I1Cent=   200000004 NGrid=           0
         NMat0=    1 NMatS0=      1 NMatT0=    0 NMatD0=    1 NMtDS0=    0 NMtDT0=    0
 Petite list used in FoFCou.
 Harris En= -76.4238082368625    
 Leave Link  401 at Wed Sep  3 18:44:06 2025, MaxMem= 12348030976 cpu:               8.9 elap:               0.3
 (Enter /home/hhratchian/gaussian/gdv-20250101-j30+/gdv/local/l502.exe)
 Keep R1 ints in memory in symmetry-blocked form, NReq=71129321.
 FoFCou: FMM=F IPFlag=           0 FMFlag=           0 FMFlg1=           0
         NFxFlg=           0 DoJE=F BraDBF=F KetDBF=F FulRan=T
         wScrn=  0.000000 ICntrl=       600 IOpCl=  0 I1Cent=           0 NGrid=           0
         NMat0=    1 NMatS0=   4278 NMatT0=    0 NMatD0=    1 NMtDS0=    0 NMtDT0=    0
 Petite list used in FoFCou.
 Closed shell SCF:
 Using DIIS extrapolation, IDIIS=  1040.
 NGot= 12348030976 LenX= 12345655041 LenY= 12345643575
 Requested convergence on RMS density matrix=1.00D-08 within  32 cycles.
 Requested convergence on MAX density matrix=1.00D-06.
 Requested convergence on             energy=1.00D-06.
 No special actions if energy rises.
 
  Hrant - CycOpn.
 

 Cycle   1  Pass 1  IDiag  1:
 E= -76.4361425441324    
 DIIS: error= 8.07D-03 at cycle   1 NSaved=   1.
 NSaved= 1 IEnMin= 1 EnMin= -76.4361425441324     IErMin= 1 ErrMin= 8.07D-03
 ErrMax= 8.07D-03  0.00D+00 EMaxC= 1.00D-01 BMatC= 1.28D-03 BMatP= 1.28D-03
 Rises=F IDIUse=3 WtCom= 9.28D-01 WtEn= 7.25D-02
 Coeff-Com:  0.100D+01
 Coeff-En:   0.100D+01
 Coeff:      0.100D+01
 Gap=     0.414 Goal=   None    Shift=    0.000
 GapD=    0.414 DampG=2.000 DampE=1.000 DampFc=2.0000 IDamp=-1.
 RMSDP=6.71D-04 MaxDP=1.20D-02              OVMax= 1.60D-02

 Cycle   2  Pass 1  IDiag  1:
 E= -76.4377417761706     Delta-E=       -0.001599232038 Rises=F Damp=F AM=F Ri=F Fa=F
 DIIS: error= 1.86D-03 at cycle   2 NSaved=   2.
 NSaved= 2 IEnMin= 2 EnMin= -76.4377417761706     IErMin= 2 ErrMin= 1.86D-03
 ErrMax= 1.86D-03  0.00D+00 EMaxC= 1.00D-01 BMatC= 6.93D-05 BMatP= 1.28D-03
 Rises=F IDIUse=3 WtCom= 9.92D-01 WtEn= 8.03D-03
 Coeff-Com:  0.645D-01 0.935D+00
 Coeff-En:   0.000D+00 0.100D+01
 Coeff:      0.640D-01 0.936D+00
 Gap=     0.398 Goal=   None    Shift=    0.000
 RMSDP=9.77D-05 MaxDP=2.17D-03 DE=-1.60D-03 OVMax= 4.54D-03

 Cycle   3  Pass 1  IDiag  1:
 E= -76.4377831465365     Delta-E=       -0.000041370366 Rises=F Damp=F AM=F Ri=F Fa=F
 DIIS: error= 1.62D-03 at cycle   3 NSaved=   3.
 NSaved= 3 IEnMin= 3 EnMin= -76.4377831465365     IErMin= 3 ErrMin= 1.62D-03
 ErrMax= 1.62D-03  0.00D+00 EMaxC= 1.00D-01 BMatC= 4.39D-05 BMatP= 6.93D-05
 Rises=F IDIUse=3 WtCom= 9.93D-01 WtEn= 6.52D-03
 Coeff-Com: -0.115D-01 0.436D+00 0.575D+00
 Coeff-En:   0.000D+00 0.306D+00 0.694D+00
 Coeff:     -0.115D-01 0.435D+00 0.576D+00
 Gap=     0.394 Goal=   None    Shift=    0.000
 RMSDP=4.90D-05 MaxDP=1.16D-03 DE=-4.14D-05 OVMax= 2.56D-03

 Cycle   4  Pass 1  IDiag  1:
 E= -76.4378349288457     Delta-E=       -0.000051782309 Rises=F Damp=F AM=F Ri=F Fa=F
 DIIS: error= 3.72D-04 at cycle   4 NSaved=   4.
 NSaved= 4 IEnMin= 4 EnMin= -76.4378349288457     IErMin= 4 ErrMin= 3.72D-04
 ErrMax= 3.72D-04  0.00D+00 EMaxC= 1.00D-01 BMatC= 2.67D-06 BMatP= 4.39D-05
 Rises=F IDIUse=3 WtCom= 9.99D-01 WtEn= 7.17D-04
 Coeff-Com: -0.948D-02 0.569D-01 0.227D+00 0.726D+00
 Coeff-En:   0.000D+00 0.000D+00 0.000D+00 0.100D+01
 Coeff:     -0.947D-02 0.569D-01 0.226D+00 0.726D+00
 Gap=     0.395 Goal=   None    Shift=    0.000
 RMSDP=1.08D-05 MaxDP=2.29D-04 DE=-5.18D-05 OVMax= 6.46D-04

 Cycle   5  Pass 1  IDiag  1:
 E= -76.4378387136032     Delta-E=       -0.000003784757 Rises=F Damp=F AM=F Ri=F Fa=F
 DIIS: error= 3.44D-05 at cycle   5 NSaved=   5.
 NSaved= 5 IEnMin= 5 EnMin= -76.4378387136032     IErMin= 5 ErrMin= 3.44D-05
 ErrMax= 3.44D-05  0.00D+00 EMaxC= 1.00D-01 BMatC= 2.14D-08 BMatP= 2.67D-06
 Rises=F IDIUse=1 WtCom= 1.00D+00 WtEn= 0.00D+00
 Coeff-Com:  0.122D-02-0.283D-01-0.402D-01-0.391D-01 0.111D+01
 Coeff:      0.122D-02-0.283D-01-0.402D-01-0.391D-01 0.111D+01
 Gap=     0.395 Goal=   None    Shift=    0.000
 RMSDP=4.08D-06 MaxDP=1.52D-04 DE=-3.78D-06 OVMax= 2.70D-04

 Cycle   6  Pass 1  IDiag  1:
 E= -76.4378388066457     Delta-E=       -0.000000093042 Rises=F Damp=F AM=F Ri=F Fa=F
 DIIS: error= 5.17D-06 at cycle   6 NSaved=   6.
 NSaved= 6 IEnMin= 6 EnMin= -76.4378388066457     IErMin= 6 ErrMin= 5.17D-06
 ErrMax= 5.17D-06  0.00D+00 EMaxC= 1.00D-01 BMatC= 2.17D-10 BMatP= 2.14D-08
 Rises=F IDIUse=1 WtCom= 1.00D+00 WtEn= 0.00D+00
 Coeff-Com:  0.347D-05 0.212D-02 0.221D-02-0.253D-02-0.154D+00 0.115D+01
 Coeff:      0.347D-05 0.212D-02 0.221D-02-0.253D-02-0.154D+00 0.115D+01
 Gap=     0.395 Goal=   None    Shift=    0.000
 RMSDP=4.42D-07 MaxDP=1.07D-05 DE=-9.30D-08 OVMax= 4.23D-05

 Cycle   7  Pass 1  IDiag  1:
 E= -76.4378388084640     Delta-E=       -0.000000001818 Rises=F Damp=F AM=F Ri=F Fa=F
 DIIS: error= 5.69D-07 at cycle   7 NSaved=   7.
 NSaved= 7 IEnMin= 7 EnMin= -76.4378388084640     IErMin= 7 ErrMin= 5.69D-07
 ErrMax= 5.69D-07  0.00D+00 EMaxC= 1.00D-01 BMatC= 3.89D-12 BMatP= 2.17D-10
 Rises=F IDIUse=1 WtCom= 1.00D+00 WtEn= 0.00D+00
 Coeff-Com: -0.188D-04 0.209D-03 0.295D-03 0.632D-04 0.133D-02-0.152D+00
 Coeff-Com:  0.115D+01
 Coeff:     -0.188D-04 0.209D-03 0.295D-03 0.632D-04 0.133D-02-0.152D+00
 Coeff:      0.115D+01
 Gap=     0.395 Goal=   None    Shift=    0.000
 RMSDP=6.57D-08 MaxDP=1.32D-06 DE=-1.82D-09 OVMax= 5.22D-06

 Cycle   8  Pass 1  IDiag  1:
 E= -76.4378388084932     Delta-E=       -0.000000000029 Rises=F Damp=F AM=F Ri=F Fa=F
 DIIS: error= 5.03D-08 at cycle   8 NSaved=   8.
 NSaved= 8 IEnMin= 8 EnMin= -76.4378388084932     IErMin= 8 ErrMin= 5.03D-08
 ErrMax= 5.03D-08  0.00D+00 EMaxC= 1.00D-01 BMatC= 3.02D-14 BMatP= 3.89D-12
 Rises=F IDIUse=1 WtCom= 1.00D+00 WtEn= 0.00D+00
 Coeff-Com:  0.228D-05-0.449D-04-0.511D-04 0.933D-04 0.121D-02 0.942D-02
 Coeff-Com: -0.154D+00 0.114D+01
 Coeff:      0.228D-05-0.449D-04-0.511D-04 0.933D-04 0.121D-02 0.942D-02
 Coeff:     -0.154D+00 0.114D+01
 Gap=     0.395 Goal=   None    Shift=    0.000
 RMSDP=5.70D-09 MaxDP=1.53D-07 DE=-2.92D-11 OVMax= 3.46D-07

 SCF Done:  E(RCAM-B3LYP) =  -76.4378388085     A.U. after    8 cycles
            NFock=  8  Conv=0.57D-08     -V/T= 2.0053
 KE=          76.032494 PE=        -199.118488 EE=          37.429759
 Leave Link  502 at Wed Sep  3 18:44:07 2025, MaxMem= 12348030976 cpu:              27.9 elap:               0.7
 (Enter /home/hhratchian/gaussian/gdv-20250101-j30+/gdv/l508.exe)
 QCSCF skips out because SCF is already converged.
 Leave Link  508 at Wed Sep  3 18:44:07 2025, MaxMem= 12348030976 cpu:               0.1 elap:               0.0
 (Enter /home/hhratchian/gaussian/gdv-20250101-j30+/gdv/l701.exe)
 ... and contract with generalized density number  0.
 Compute integral first derivatives.
   4 Symmetry operations used in ECPInt.
 ECPInt:  NShTT=     528 NPrTT=    1270 LenC2=     529 LenP2D=    1253.
 LDataN:  DoStor=T MaxTD1= 7 Len=  274
 Leave Link  701 at Wed Sep  3 18:44:07 2025, MaxMem= 12348030976 cpu:               6.7 elap:               0.2
 (Enter /home/hhratchian/gaussian/gdv-20250101-j30+/gdv/l702.exe)
 L702 exits ... SP integral derivatives will be done elsewhere.
 Leave Link  702 at Wed Sep  3 18:44:07 2025, MaxMem= 12348030976 cpu:               0.1 elap:               0.0
 (Enter /home/hhratchian/gaussian/gdv-20250101-j30+/gdv/l703.exe)
 Integral derivatives from FoFJK, PRISM(SPDF).
 Compute integral first derivatives, UseDBF=F ICtDFT=           0.
 Calling FoFJK, ICntrl=      2127 FMM=F ISym2X=1 I1Cent= 0 IOpClX= 0 NMat=1 NMatS=1 NMatT=0.
 FoFJK:  IHMeth= 1 ICntrl=    2127 DoSepK=T KAlg= 0 I1Cent=           0 FoldK=F
 IRaf=         1 NMat=       1 IRICut=       1 DoRegI=T DoRafI=F ISym2E= 1 IDoP0=0 IntGTp=1.
 FoFCou: FMM=F IPFlag=           0 FMFlag=      100000 FMFlg1=         800
         NFxFlg=           0 DoJE=F BraDBF=F KetDBF=F FulRan=T
         wScrn=  0.000000 ICntrl=      2527 IOpCl=  0 I1Cent=           0 NGrid=           0
         NMat0=    1 NMatS0=      1 NMatT0=    0 NMatD0=    1 NMtDS0=    0 NMtDT0=    0
 Petite list used in FoFCou.
 Leave Link  703 at Wed Sep  3 18:44:08 2025, MaxMem= 12348030976 cpu:              29.5 elap:               0.7
 (Enter /home/hhratchian/gaussian/gdv-20250101-j30+/gdv/l716.exe)
 Dipole        =-3.93502837D-17 0.00000000D+00-7.20162508D-01
 ***** Axes restored to original set *****
 -------------------------------------------------------------------
 Center     Atomic                   Forces (Hartrees/Bohr)
 Number     Number              X              Y              Z
 -------------------------------------------------------------------
      1        8           0.000000000   -0.000000000   -0.012127214
      2        1           0.001964549    0.000000000    0.006063607
      3        1          -0.001964549    0.000000000    0.006063607
 -------------------------------------------------------------------
 Cartesian Forces:  Max     0.012127214 RMS     0.005036786
 Leave Link  716 at Wed Sep  3 18:44:08 2025, MaxMem= 12348030976 cpu:               0.7 elap:               0.1
 (Enter /home/hhratchian/gaussian/gdv-20250101-j30+/gdv/l103.exe)

 GradGradGradGradGradGradGradGradGradGradGradGradGradGradGradGradGradGrad
 Berny optimization.
 Using GEDIIS/GDIIS optimizer.
 FormGI is forming the generalized inverse of G from B-inverse, IUseBI=4.
 NTrRot=    -1 NTRed=     3 NAtoms=     3 NSkip=     0 NRank=     3 IsLin=F EigSml=7.9894D-01
 Internal  Forces:  Max     0.006786848 RMS     0.005743488
 Search for a local minimum.
 Step number   2 out of a maximum of   20
 All quantities printed in internal units (Hartrees-Bohrs-Radians)
 RMS Force = .57435D-02 SwitMx=.10000D-02 MixMth= 1
 Mixed Optimization -- RFO/linear search
 Update second derivatives using D2CorX and points    1    2
 DE= -5.51D-03 DEPred=-5.13D-03 R= 1.08D+00
 TightC=F SS=  1.41D+00  RLast= 1.39D-01 DXNew= 5.0454D-01 4.1593D-01
 Trust test= 1.08D+00 RLast= 1.39D-01 DXMaxT set to 4.16D-01
 The second derivative matrix:
                          R1        R2        A1
           R1           0.66381
           R2          -0.01144   0.66381
           A1           0.03176   0.03176   0.14908
 ITU=  1  0
 Use linear search instead of GDIIS.
     Eigenvalues ---    0.14510   0.65634   0.67525
 RFO step:  Lambda=-3.03201267D-04 EMin= 1.45101680D-01
 Quartic linear search produced a step of  0.18599.
 GrdOpt: GIC=T ITstSp=  0 NP=   2 DidLin=T DidDIS=F IDoGRo=0 IDoRot=0
         ISwap=1 XLin= 0.186 DXMaxT= 0.416
 Iteration  1 RMS(Cart)=  0.01651162 RMS(Int)=  0.00065031
 Iteration  2 RMS(Cart)=  0.00038626 RMS(Int)=  0.00000010
 Iteration  3 RMS(Cart)=  0.00000005 RMS(Int)=  0.00000000
 ClnCor:  largest displacement from symmetrization is 6.28D-16 for atom     3.
 Variable       Old X    -DE/DX   Delta X   Delta X   Delta X     New X
                                 (Linear)    (Quad)   (Total)
    R1        1.80257   0.00514   0.01510  -0.00276   0.01234   1.81491
    R2        1.80257   0.00514   0.01510  -0.00276   0.01234   1.81491
    A1        1.89050  -0.00679  -0.01446  -0.04315  -0.05761   1.83289
         Item               Value     Threshold  Converged?
 Maximum Force            0.006787     0.000450     NO 
 RMS     Force            0.005743     0.000300     NO 
 Maximum Displacement     0.032772     0.001800     NO 
 RMS     Displacement     0.028931     0.001200     NO 
 Predicted change in Energy=-2.163471D-04
 Lowest energy point so far.  Saving SCF results.
 GradGradGradGradGradGradGradGradGradGradGradGradGradGradGradGradGradGrad

 Leave Link  103 at Wed Sep  3 18:44:08 2025, MaxMem= 12348030976 cpu:               0.9 elap:               0.1
 (Enter /home/hhratchian/gaussian/gdv-20250101-j30+/gdv/l202.exe)
                          Input orientation:                          
 ---------------------------------------------------------------------
 Center     Atomic      Atomic             Coordinates (Angstroms)
 Number     Number       Type             X           Y           Z
 ---------------------------------------------------------------------
      1          8           0       -0.000000    0.000000   -0.053509
      2          1           0        0.762029    0.000000    0.531039
      3          1           0       -0.762029   -0.000000    0.531039
 ---------------------------------------------------------------------
                    Distance matrix (angstroms):
                    1          2          3
     1  O    0.000000
     2  H    0.960408   0.000000
     3  H    0.960408   1.524058   0.000000
 Stoichiometry    H2O
 Framework group  C2V[C2(O),SGV(H2)]
 Deg. of freedom     2
 Full point group                 C2V     NOp   4
 RotChk:  IX=0 Diff= 6.39D-16
 Largest Abelian subgroup         C2V     NOp   4
 Largest concise Abelian subgroup C2      NOp   2
                         Standard orientation:                         
 ---------------------------------------------------------------------
 Center     Atomic      Atomic             Coordinates (Angstroms)
 Number     Number       Type             X           Y           Z
 ---------------------------------------------------------------------
      1          8           0        0.000000   -0.000000    0.116910
      2          1           0       -0.000000    0.762029   -0.467638
      3          1           0       -0.000000   -0.762029   -0.467638
 ---------------------------------------------------------------------
 Rotational constants (GHZ):         826.2427809         431.7767586         283.5825824
 Leave Link  202 at Wed Sep  3 18:44:08 2025, MaxMem= 12348030976 cpu:               0.8 elap:               0.0
 (Enter /home/hhratchian/gaussian/gdv-20250101-j30+/gdv/local/l301.exe)
 Basis read from rwf:  (5D, 7F)
 Pseudo-potential data read from rwf file.
 There are    42 symmetry adapted cartesian basis functions of A1  symmetry.
 There are    12 symmetry adapted cartesian basis functions of A2  symmetry.
 There are    20 symmetry adapted cartesian basis functions of B1  symmetry.
 There are    31 symmetry adapted cartesian basis functions of B2  symmetry.
 There are    35 symmetry adapted basis functions of A1  symmetry.
 There are    12 symmetry adapted basis functions of A2  symmetry.
 There are    18 symmetry adapted basis functions of B1  symmetry.
 There are    27 symmetry adapted basis functions of B2  symmetry.
    92 basis functions,   126 primitive gaussians,   105 cartesian basis functions
     5 alpha electrons        5 beta electrons
       nuclear repulsion energy         9.1630879209 Hartrees.
 IExCor=   2004019 DFT=T Ex+Corr=CAM-B3LYP ScaHFX=  1.000000
 ScaDFX=  1.000000  1.000000  1.000000  0.810000  1.000000  0.000000
 ScaDFX=  0.000000  0.000000  0.000000  0.000000  0.000000  0.000000
 Grid=SuperFine IRanWt=     -1 IRanGd=            0 ICorTp=0 IEDCtl=  2004
 HFx  wShort=  0.000000 wLong=  0.330000 cFull=  0.190000 cShort=  0.000000 cLong=  0.460000
 DFx  wShort=  0.330000 wLong=  0.000000 cFull=  0.350000 cShort=  0.460000 cLong=  0.000000
 NAtoms=    3 NActive=    3 NUniq=    2 SFac= 2.25D+00 NAtFMM=   60 NAOKFM=F Big=F
 Integral buffers will be    131072 words long.
 Raffenetti 2 integral format.
 Two-electron integral symmetry is turned on.
 No density basis found on file    724.
 Leave Link  301 at Wed Sep  3 18:44:08 2025, MaxMem= 12348030976 cpu:               0.8 elap:               0.1
 (Enter /home/hhratchian/gaussian/gdv-20250101-j30+/gdv/l302.exe)
 NPDir=0 NMtPBC=     1 NCelOv=     1 NCel=       1 NClECP=     1 NCelD=      1
         NCelK=      1 NCelE2=     1 NClLst=     1 CellRange=     0.0.
 One-electron integrals computed using PRISM.
 One-electron integral symmetry used in STVInt
   4 Symmetry operations used in ECPInt.
 ECPInt:  NShTT=     528 NPrTT=    1270 LenC2=     529 LenP2D=    1251.
 LDataN:  DoStor=T MaxTD1= 6 Len=  172
 NBasis=    92 RedAO= T EigKep=  3.86D-04  NBF=    35    12    18    27
 NBsUse=    92 1.00D-06 EigRej= -1.00D+00 NBFU=    35    12    18    27
 Precomputing XC quadrature grid using
 IXCGrd=   9 Grid=SuperFine IRanWt=          -1 IRanGd=           0 AccXCQ= 0.00D+00.
 Generated NRdTot=       0 NPtTot=      198832 NUsed=           0 NTot=          64
 NSgBfM=   105   105   105   105   105 MxSgAt=     3 MxSgA2=     3 SizInc=   0.000
 NMBTot=     1911 MaxBatPerAtom=      131 MaxMicBPerAtom=      651 NBfPt=            16894841.
 Leave Link  302 at Wed Sep  3 18:44:08 2025, MaxMem= 12348030976 cpu:               6.0 elap:               0.2
 (Enter /home/hhratchian/gaussian/gdv-20250101-j30+/gdv/l303.exe)
 DipDrv:  MaxL=1.
 Leave Link  303 at Wed Sep  3 18:44:08 2025, MaxMem= 12348030976 cpu:               0.8 elap:               0.1
 (Enter /home/hhratchian/gaussian/gdv-20250101-j30+/gdv/l401.exe)
 Initial guess from the checkpoint file:  "H2O_CAM-B3LYP_genecp_q0_m1.chk"
 B after Tr=     0.000000    0.000000    0.000000
         Rot=    1.000000   -0.000000    0.000000    0.000000 Ang=   0.00 deg.
 AO Guess basis will be translated and rotated to current coordinates.
 JPrj=2 DoOrth=T DoCkMO=T.
 Initial guess orbital symmetries:
       Occupied  (A1) (A1) (B2) (A1) (B1)
       Virtual   (A1) (B2) (A1) (B1) (A1) (B2) (B2) (A1) (A2) (B1)
                 (A1) (B2) (A1) (B2) (B2) (A1) (A1) (A2) (B1) (A1)
                 (B1) (A1) (B1) (B2) (A2) (B2) (A1) (A1) (B2) (B1)
                 (B2) (A1) (A2) (B2) (A2) (A1) (B1) (A1) (B2) (B2)
                 (A1) (B1) (A2) (A1) (A1) (B1) (B2) (A1) (B2) (B1)
                 (A1) (B2) (A2) (B2) (A1) (B1) (A2) (A1) (B2) (B1)
                 (A2) (B1) (A1) (B2) (A1) (B2) (B2) (A2) (B2) (A1)
                 (B1) (A1) (A1) (B2) (B1) (A1) (B1) (B1) (A1) (A2)
                 (A2) (B2) (A1) (B2) (A1) (B2) (A1)
 The electronic state of the initial guess is 1-A1.
 Generating alternative initial guess.
 ExpMin= 2.53D-02 ExpMax= 1.53D+04 ExpMxC= 5.22D+02 IAcc=3 Grid=SuperFine AccDes= 0.00D+00
 Harris functional with IExCor=10009 and Grid=SuperFine diagonalized for initial guess.
 HarFok:  IExCor=   10009 AccDes= 0.00D+00 Grid=SuperFine IDoV= 1 UseB2=F ITyADJ=14 ICtDFT=  3500011
 FoFCou: FMM=F IPFlag=           0 FMFlag=      100000 FMFlg1=           0
         NFxFlg=           0 DoJE=T BraDBF=F KetDBF=T FulRan=T
         wScrn=  0.000000 ICntrl=       500 IOpCl=  0 I1Cent=   200000004 NGrid=           0
         NMat0=    1 NMatS0=      1 NMatT0=    0 NMatD0=    1 NMtDS0=    0 NMtDT0=    0
 Petite list used in FoFCou.
 Harris En= -76.4232099625068    
 Leave Link  401 at Wed Sep  3 18:44:09 2025, MaxMem= 12348030976 cpu:               8.4 elap:               0.3
 (Enter /home/hhratchian/gaussian/gdv-20250101-j30+/gdv/local/l502.exe)
 Keep R1 ints in memory in symmetry-blocked form, NReq=71129321.
 FoFCou: FMM=F IPFlag=           0 FMFlag=           0 FMFlg1=           0
         NFxFlg=           0 DoJE=F BraDBF=F KetDBF=F FulRan=T
         wScrn=  0.000000 ICntrl=       600 IOpCl=  0 I1Cent=           0 NGrid=           0
         NMat0=    1 NMatS0=   4278 NMatT0=    0 NMatD0=    1 NMtDS0=    0 NMtDT0=    0
 Petite list used in FoFCou.
 Closed shell SCF:
 Using DIIS extrapolation, IDIIS=  1040.
 NGot= 12348030976 LenX= 12345655041 LenY= 12345643575
 Requested convergence on RMS density matrix=1.00D-08 within  32 cycles.
 Requested convergence on MAX density matrix=1.00D-06.
 Requested convergence on             energy=1.00D-06.
 No special actions if energy rises.
 
  Hrant - CycOpn.
 

 Cycle   1  Pass 1  IDiag  1:
 E= -76.4378465349661    
 DIIS: error= 2.15D-03 at cycle   1 NSaved=   1.
 NSaved= 1 IEnMin= 1 EnMin= -76.4378465349661     IErMin= 1 ErrMin= 2.15D-03
 ErrMax= 2.15D-03  0.00D+00 EMaxC= 1.00D-01 BMatC= 1.18D-04 BMatP= 1.18D-04
 Rises=F IDIUse=3 WtCom= 9.90D-01 WtEn= 9.96D-03
 Coeff-Com:  0.100D+01
 Coeff-En:   0.100D+01
 Coeff:      0.100D+01
 Gap=     0.401 Goal=   None    Shift=    0.000
 GapD=    0.401 DampG=2.000 DampE=1.000 DampFc=2.0000 IDamp=-1.
 RMSDP=1.66D-04 MaxDP=3.09D-03              OVMax= 6.05D-03

 Cycle   2  Pass 1  IDiag  1:
 E= -76.4380549856823     Delta-E=       -0.000208450716 Rises=F Damp=F AM=F Ri=F Fa=F
 DIIS: error= 3.17D-04 at cycle   2 NSaved=   2.
 NSaved= 2 IEnMin= 2 EnMin= -76.4380549856823     IErMin= 2 ErrMin= 3.17D-04
 ErrMax= 3.17D-04  0.00D+00 EMaxC= 1.00D-01 BMatC= 3.30D-06 BMatP= 1.18D-04
 Rises=F IDIUse=3 WtCom= 9.99D-01 WtEn= 5.65D-04
 Coeff-Com: -0.316D-01 0.103D+01
 Coeff-En:   0.000D+00 0.100D+01
 Coeff:     -0.316D-01 0.103D+01
 Gap=     0.394 Goal=   None    Shift=    0.000
 RMSDP=3.44D-05 MaxDP=1.05D-03 DE=-2.08D-04 OVMax= 1.42D-03

 Cycle   3  Pass 1  IDiag  1:
 E= -76.4380615530615     Delta-E=       -0.000006567379 Rises=F Damp=F AM=F Ri=F Fa=F
 DIIS: error= 1.35D-04 at cycle   3 NSaved=   3.
 NSaved= 3 IEnMin= 3 EnMin= -76.4380615530615     IErMin= 3 ErrMin= 1.35D-04
 ErrMax= 1.35D-04  0.00D+00 EMaxC= 1.00D-01 BMatC= 4.73D-07 BMatP= 3.30D-06
 Rises=F IDIUse=3 WtCom= 1.00D+00 WtEn= 1.56D-04
 Coeff-Com: -0.255D-01 0.236D+00 0.790D+00
 Coeff-En:   0.000D+00 0.000D+00 0.100D+01
 Coeff:     -0.255D-01 0.236D+00 0.790D+00
 Gap=     0.394 Goal=   None    Shift=    0.000
 RMSDP=6.69D-06 MaxDP=1.28D-04 DE=-6.57D-06 OVMax= 4.27D-04

 Cycle   4  Pass 1  IDiag  1:
 E= -76.4380621033460     Delta-E=       -0.000000550285 Rises=F Damp=F AM=F Ri=F Fa=F
 DIIS: error= 1.01D-04 at cycle   4 NSaved=   4.
 NSaved= 4 IEnMin= 4 EnMin= -76.4380621033460     IErMin= 4 ErrMin= 1.01D-04
 ErrMax= 1.01D-04  0.00D+00 EMaxC= 1.00D-01 BMatC= 1.81D-07 BMatP= 4.73D-07
 Rises=F IDIUse=3 WtCom= 1.00D+00 WtEn= 1.01D-04
 Coeff-Com: -0.111D-01 0.605D-01 0.405D+00 0.545D+00
 Coeff-En:   0.000D+00 0.000D+00 0.820D-01 0.918D+00
 Coeff:     -0.111D-01 0.605D-01 0.405D+00 0.545D+00
 Gap=     0.394 Goal=   None    Shift=    0.000
 RMSDP=3.39D-06 MaxDP=9.66D-05 DE=-5.50D-07 OVMax= 1.59D-04

 Cycle   5  Pass 1  IDiag  1:
 E= -76.4380623367173     Delta-E=       -0.000000233371 Rises=F Damp=F AM=F Ri=F Fa=F
 DIIS: error= 1.49D-05 at cycle   5 NSaved=   5.
 NSaved= 5 IEnMin= 5 EnMin= -76.4380623367173     IErMin= 5 ErrMin= 1.49D-05
 ErrMax= 1.49D-05  0.00D+00 EMaxC= 1.00D-01 BMatC= 4.39D-09 BMatP= 1.81D-07
 Rises=F IDIUse=1 WtCom= 1.00D+00 WtEn= 0.00D+00
 Coeff-Com:  0.191D-02-0.302D-01-0.429D-01 0.887D-01 0.982D+00
 Coeff:      0.191D-02-0.302D-01-0.429D-01 0.887D-01 0.982D+00
 Gap=     0.394 Goal=   None    Shift=    0.000
 RMSDP=1.24D-06 MaxDP=3.95D-05 DE=-2.33D-07 OVMax= 6.73D-05

 Cycle   6  Pass 1  IDiag  1:
 E= -76.4380623465267     Delta-E=       -0.000000009809 Rises=F Damp=F AM=F Ri=F Fa=F
 DIIS: error= 1.34D-06 at cycle   6 NSaved=   6.
 NSaved= 6 IEnMin= 6 EnMin= -76.4380623465267     IErMin= 6 ErrMin= 1.34D-06
 ErrMax= 1.34D-06  0.00D+00 EMaxC= 1.00D-01 BMatC= 1.61D-11 BMatP= 4.39D-09
 Rises=F IDIUse=1 WtCom= 1.00D+00 WtEn= 0.00D+00
 Coeff-Com: -0.104D-03 0.280D-02 0.355D-02-0.167D-01-0.137D+00 0.115D+01
 Coeff:     -0.104D-03 0.280D-02 0.355D-02-0.167D-01-0.137D+00 0.115D+01
 Gap=     0.394 Goal=   None    Shift=    0.000
 RMSDP=1.27D-07 MaxDP=2.53D-06 DE=-9.81D-09 OVMax= 1.07D-05

 Cycle   7  Pass 1  IDiag  1:
 E= -76.4380623466498     Delta-E=       -0.000000000123 Rises=F Damp=F AM=F Ri=F Fa=F
 DIIS: error= 1.87D-07 at cycle   7 NSaved=   7.
 NSaved= 7 IEnMin= 7 EnMin= -76.4380623466498     IErMin= 7 ErrMin= 1.87D-07
 ErrMax= 1.87D-07  0.00D+00 EMaxC= 1.00D-01 BMatC= 4.79D-13 BMatP= 1.61D-11
 Rises=F IDIUse=1 WtCom= 1.00D+00 WtEn= 0.00D+00
 Coeff-Com: -0.201D-04 0.206D-03 0.347D-05 0.751D-03-0.339D-02-0.148D+00
 Coeff-Com:  0.115D+01
 Coeff:     -0.201D-04 0.206D-03 0.347D-05 0.751D-03-0.339D-02-0.148D+00
 Coeff:      0.115D+01
 Gap=     0.394 Goal=   None    Shift=    0.000
 RMSDP=2.01D-08 MaxDP=3.95D-07 DE=-1.23D-10 OVMax= 1.69D-06

 Cycle   8  Pass 1  IDiag  1:
 E= -76.4380623466536     Delta-E=       -0.000000000004 Rises=F Damp=F AM=F Ri=F Fa=F
 DIIS: error= 2.48D-08 at cycle   8 NSaved=   8.
 NSaved= 8 IEnMin= 8 EnMin= -76.4380623466536     IErMin= 8 ErrMin= 2.48D-08
 ErrMax= 2.48D-08  0.00D+00 EMaxC= 1.00D-01 BMatC= 6.16D-15 BMatP= 4.79D-13
 Rises=F IDIUse=1 WtCom= 1.00D+00 WtEn= 0.00D+00
 Coeff-Com:  0.435D-05-0.746D-04-0.109D-05 0.120D-03 0.270D-02 0.325D-02
 Coeff-Com: -0.160D+00 0.115D+01
 Coeff:      0.435D-05-0.746D-04-0.109D-05 0.120D-03 0.270D-02 0.325D-02
 Coeff:     -0.160D+00 0.115D+01
 Gap=     0.394 Goal=   None    Shift=    0.000
 RMSDP=2.90D-09 MaxDP=6.40D-08 DE=-3.79D-12 OVMax= 1.67D-07

 SCF Done:  E(RCAM-B3LYP) =  -76.4380623467     A.U. after    8 cycles
            NFock=  8  Conv=0.29D-08     -V/T= 2.0056
 KE=          76.013496 PE=        -198.995222 EE=          37.380576
 Leave Link  502 at Wed Sep  3 18:44:10 2025, MaxMem= 12348030976 cpu:              28.0 elap:               0.7
 (Enter /home/hhratchian/gaussian/gdv-20250101-j30+/gdv/l508.exe)
 QCSCF skips out because SCF is already converged.
 Leave Link  508 at Wed Sep  3 18:44:10 2025, MaxMem= 12348030976 cpu:               0.1 elap:               0.0
 (Enter /home/hhratchian/gaussian/gdv-20250101-j30+/gdv/l701.exe)
 ... and contract with generalized density number  0.
 Compute integral first derivatives.
   4 Symmetry operations used in ECPInt.
 ECPInt:  NShTT=     528 NPrTT=    1270 LenC2=     529 LenP2D=    1251.
 LDataN:  DoStor=T MaxTD1= 7 Len=  274
 Leave Link  701 at Wed Sep  3 18:44:10 2025, MaxMem= 12348030976 cpu:               6.2 elap:               0.2
 (Enter /home/hhratchian/gaussian/gdv-20250101-j30+/gdv/l702.exe)
 L702 exits ... SP integral derivatives will be done elsewhere.
 Leave Link  702 at Wed Sep  3 18:44:10 2025, MaxMem= 12348030976 cpu:               0.8 elap:               0.1
 (Enter /home/hhratchian/gaussian/gdv-20250101-j30+/gdv/l703.exe)
 Integral derivatives from FoFJK, PRISM(SPDF).
 Compute integral first derivatives, UseDBF=F ICtDFT=           0.
 Calling FoFJK, ICntrl=      2127 FMM=F ISym2X=1 I1Cent= 0 IOpClX= 0 NMat=1 NMatS=1 NMatT=0.
 FoFJK:  IHMeth= 1 ICntrl=    2127 DoSepK=T KAlg= 0 I1Cent=           0 FoldK=F
 IRaf=         1 NMat=       1 IRICut=       1 DoRegI=T DoRafI=F ISym2E= 1 IDoP0=0 IntGTp=1.
 FoFCou: FMM=F IPFlag=           0 FMFlag=      100000 FMFlg1=         800
         NFxFlg=           0 DoJE=F BraDBF=F KetDBF=F FulRan=T
         wScrn=  0.000000 ICntrl=      2527 IOpCl=  0 I1Cent=           0 NGrid=           0
         NMat0=    1 NMatS0=      1 NMatT0=    0 NMatD0=    1 NMtDS0=    0 NMtDT0=    0
 Petite list used in FoFCou.
 Leave Link  703 at Wed Sep  3 18:44:11 2025, MaxMem= 12348030976 cpu:              33.7 elap:               0.8
 (Enter /home/hhratchian/gaussian/gdv-20250101-j30+/gdv/l716.exe)
 Dipole        =-3.96231255D-17 0.00000000D+00-7.42054160D-01
 ***** Axes restored to original set *****
 -------------------------------------------------------------------
 Center     Atomic                   Forces (Hartrees/Bohr)
 Number     Number              X              Y              Z
 -------------------------------------------------------------------
      1        8          -0.000000000   -0.000000000    0.001080075
      2        1           0.000481310    0.000000000   -0.000540038
      3        1          -0.000481310    0.000000000   -0.000540038
 -------------------------------------------------------------------
 Cartesian Forces:  Max     0.001080075 RMS     0.000495890
 Leave Link  716 at Wed Sep  3 18:44:11 2025, MaxMem= 12348030976 cpu:               0.1 elap:               0.0
 (Enter /home/hhratchian/gaussian/gdv-20250101-j30+/gdv/l103.exe)

 GradGradGradGradGradGradGradGradGradGradGradGradGradGradGradGradGradGrad
 Berny optimization.
 Using GEDIIS/GDIIS optimizer.
 FormGI is forming the generalized inverse of G from B-inverse, IUseBI=4.
 NTrRot=    -1 NTRed=     3 NAtoms=     3 NSkip=     0 NRank=     3 IsLin=F EigSml=7.8138D-01
 Internal  Forces:  Max     0.001309340 RMS     0.000757195
 Search for a local minimum.
 Step number   3 out of a maximum of   20
 All quantities printed in internal units (Hartrees-Bohrs-Radians)
 RMS Force = .75719D-03 SwitMx=.10000D-02 MixMth= 2
 Mixed Optimization -- En-DIIS/RFO-DIIS
 Update second derivatives using D2CorX and points    1    2    3
 DE= -2.24D-04 DEPred=-2.16D-04 R= 1.03D+00
 TightC=F SS=  1.41D+00  RLast= 6.02D-02 DXNew= 6.9951D-01 1.8058D-01
 Trust test= 1.03D+00 RLast= 6.02D-02 DXMaxT set to 4.16D-01
 The second derivative matrix:
                          R1        R2        A1
           R1           0.63918
           R2          -0.03607   0.63918
           A1           0.04083   0.04083   0.15803
 ITU=  1  1  0
 Use linear search instead of GDIIS.
     Eigenvalues ---    0.15066   0.61048   0.67525
 RFO step:  Lambda=-1.81944532D-06 EMin= 1.50656769D-01
 Quartic linear search produced a step of -0.12339.
 GrdOpt: GIC=T ITstSp=  0 NP=   3 DidLin=T DidDIS=F IDoGRo=0 IDoRot=0
         ISwap=1 XLin=-0.123 DXMaxT= 0.416
 Iteration  1 RMS(Cart)=  0.00265569 RMS(Int)=  0.00001321
 Iteration  2 RMS(Cart)=  0.00000690 RMS(Int)=  0.00000000
 Iteration  3 RMS(Cart)=  0.00000000 RMS(Int)=  0.00000000
 ClnCor:  largest displacement from symmetrization is 8.01D-16 for atom     3.
 Variable       Old X    -DE/DX   Delta X   Delta X   Delta X     New X
                                 (Linear)    (Quad)   (Total)
    R1        1.81491   0.00005  -0.00152   0.00105  -0.00048   1.81443
    R2        1.81491   0.00005  -0.00152   0.00105  -0.00048   1.81443
    A1        1.83289   0.00131   0.00711   0.00132   0.00842   1.84131
         Item               Value     Threshold  Converged?
 Maximum Force            0.001309     0.000450     NO 
 RMS     Force            0.000757     0.000300     NO 
 Maximum Displacement     0.004261     0.001800     NO 
 RMS     Displacement     0.004594     0.001200     NO 
 Predicted change in Energy=-5.562971D-06
 Lowest energy point so far.  Saving SCF results.
 GradGradGradGradGradGradGradGradGradGradGradGradGradGradGradGradGradGrad

 Leave Link  103 at Wed Sep  3 18:44:11 2025, MaxMem= 12348030976 cpu:               0.9 elap:               0.1
 (Enter /home/hhratchian/gaussian/gdv-20250101-j30+/gdv/l202.exe)
                          Input orientation:                          
 ---------------------------------------------------------------------
 Center     Atomic      Atomic             Coordinates (Angstroms)
 Number     Number       Type             X           Y           Z
 ---------------------------------------------------------------------
      1          8           0       -0.000000    0.000000   -0.051264
      2          1           0        0.764284    0.000000    0.529916
      3          1           0       -0.764284   -0.000000    0.529916
 ---------------------------------------------------------------------
                    Distance matrix (angstroms):
                    1          2          3
     1  O    0.000000
     2  H    0.960156   0.000000
     3  H    0.960156   1.528567   0.000000
 Stoichiometry    H2O
 Framework group  C2V[C2(O),SGV(H2)]
 Deg. of freedom     2
 Full point group                 C2V     NOp   4
 RotChk:  IX=0 Diff= 4.90D-16
 Largest Abelian subgroup         C2V     NOp   4
 Largest concise Abelian subgroup C2      NOp   2
                         Standard orientation:                         
 ---------------------------------------------------------------------
 Center     Atomic      Atomic             Coordinates (Angstroms)
 Number     Number       Type             X           Y           Z
 ---------------------------------------------------------------------
      1          8           0       -0.000000    0.000000    0.116236
      2          1           0        0.000000    0.764284   -0.464944
      3          1           0       -0.000000   -0.764284   -0.464944
 ---------------------------------------------------------------------
 Rotational constants (GHZ):         835.8452374         429.2327555         283.5968663
 Leave Link  202 at Wed Sep  3 18:44:11 2025, MaxMem= 12348030976 cpu:               1.7 elap:               0.1
 (Enter /home/hhratchian/gaussian/gdv-20250101-j30+/gdv/local/l301.exe)
 Basis read from rwf:  (5D, 7F)
 Pseudo-potential data read from rwf file.
 There are    42 symmetry adapted cartesian basis functions of A1  symmetry.
 There are    12 symmetry adapted cartesian basis functions of A2  symmetry.
 There are    20 symmetry adapted cartesian basis functions of B1  symmetry.
 There are    31 symmetry adapted cartesian basis functions of B2  symmetry.
 There are    35 symmetry adapted basis functions of A1  symmetry.
 There are    12 symmetry adapted basis functions of A2  symmetry.
 There are    18 symmetry adapted basis functions of B1  symmetry.
 There are    27 symmetry adapted basis functions of B2  symmetry.
    92 basis functions,   126 primitive gaussians,   105 cartesian basis functions
     5 alpha electrons        5 beta electrons
       nuclear repulsion energy         9.1643767021 Hartrees.
 IExCor=   2004019 DFT=T Ex+Corr=CAM-B3LYP ScaHFX=  1.000000
 ScaDFX=  1.000000  1.000000  1.000000  0.810000  1.000000  0.000000
 ScaDFX=  0.000000  0.000000  0.000000  0.000000  0.000000  0.000000
 Grid=SuperFine IRanWt=     -1 IRanGd=            0 ICorTp=0 IEDCtl=  2004
 HFx  wShort=  0.000000 wLong=  0.330000 cFull=  0.190000 cShort=  0.000000 cLong=  0.460000
 DFx  wShort=  0.330000 wLong=  0.000000 cFull=  0.350000 cShort=  0.460000 cLong=  0.000000
 NAtoms=    3 NActive=    3 NUniq=    2 SFac= 2.25D+00 NAtFMM=   60 NAOKFM=F Big=F
 Integral buffers will be    131072 words long.
 Raffenetti 2 integral format.
 Two-electron integral symmetry is turned on.
 No density basis found on file    724.
 Leave Link  301 at Wed Sep  3 18:44:11 2025, MaxMem= 12348030976 cpu:               0.2 elap:               0.1
 (Enter /home/hhratchian/gaussian/gdv-20250101-j30+/gdv/l302.exe)
 NPDir=0 NMtPBC=     1 NCelOv=     1 NCel=       1 NClECP=     1 NCelD=      1
         NCelK=      1 NCelE2=     1 NClLst=     1 CellRange=     0.0.
 One-electron integrals computed using PRISM.
 One-electron integral symmetry used in STVInt
   4 Symmetry operations used in ECPInt.
 ECPInt:  NShTT=     528 NPrTT=    1270 LenC2=     529 LenP2D=    1251.
 LDataN:  DoStor=T MaxTD1= 6 Len=  172
 NBasis=    92 RedAO= T EigKep=  3.85D-04  NBF=    35    12    18    27
 NBsUse=    92 1.00D-06 EigRej= -1.00D+00 NBFU=    35    12    18    27
 Precomputing XC quadrature grid using
 IXCGrd=   9 Grid=SuperFine IRanWt=          -1 IRanGd=           0 AccXCQ= 0.00D+00.
 Generated NRdTot=       0 NPtTot=      198837 NUsed=           0 NTot=          64
 NSgBfM=   105   105   105   105   105 MxSgAt=     3 MxSgA2=     3 SizInc=   0.000
 NMBTot=     1926 MaxBatPerAtom=      131 MaxMicBPerAtom=      647 NBfPt=            16895722.
 Leave Link  302 at Wed Sep  3 18:44:11 2025, MaxMem= 12348030976 cpu:               6.0 elap:               0.2
 (Enter /home/hhratchian/gaussian/gdv-20250101-j30+/gdv/l303.exe)
 DipDrv:  MaxL=1.
 Leave Link  303 at Wed Sep  3 18:44:11 2025, MaxMem= 12348030976 cpu:               0.8 elap:               0.1
 (Enter /home/hhratchian/gaussian/gdv-20250101-j30+/gdv/l401.exe)
 Initial guess from the checkpoint file:  "H2O_CAM-B3LYP_genecp_q0_m1.chk"
 B after Tr=    -0.000000    0.000000   -0.000000
         Rot=    1.000000   -0.000000    0.000000    0.000000 Ang=   0.00 deg.
 AO Guess basis will be translated and rotated to current coordinates.
 JPrj=2 DoOrth=T DoCkMO=T.
 Initial guess orbital symmetries:
       Occupied  (A1) (A1) (B2) (A1) (B1)
       Virtual   (A1) (B2) (A1) (B1) (A1) (B2) (B2) (A1) (A2) (B1)
                 (A1) (B2) (A1) (B2) (B2) (A1) (A1) (A2) (B1) (A1)
                 (B1) (A1) (B1) (B2) (A2) (B2) (A1) (A1) (B2) (B1)
                 (B2) (A1) (A2) (B2) (A2) (A1) (B1) (A1) (B2) (B2)
                 (A1) (B1) (A2) (A1) (A1) (B1) (B2) (A1) (B2) (B1)
                 (A1) (B2) (A2) (B2) (A1) (B1) (A2) (A1) (B2) (B1)
                 (A2) (A1) (B1) (B2) (A1) (B2) (A2) (B2) (B2) (A1)
                 (B1) (A1) (A1) (B2) (B1) (A1) (B1) (B1) (A1) (A2)
                 (B2) (A2) (A1) (A1) (B2) (B2) (A1)
 The electronic state of the initial guess is 1-A1.
 Leave Link  401 at Wed Sep  3 18:44:11 2025, MaxMem= 12348030976 cpu:               1.3 elap:               0.1
 (Enter /home/hhratchian/gaussian/gdv-20250101-j30+/gdv/local/l502.exe)
 Keep R1 ints in memory in symmetry-blocked form, NReq=71129321.
 FoFCou: FMM=F IPFlag=           0 FMFlag=           0 FMFlg1=           0
         NFxFlg=           0 DoJE=F BraDBF=F KetDBF=F FulRan=T
         wScrn=  0.000000 ICntrl=       600 IOpCl=  0 I1Cent=           0 NGrid=           0
         NMat0=    1 NMatS0=   4278 NMatT0=    0 NMatD0=    1 NMtDS0=    0 NMtDT0=    0
 Petite list used in FoFCou.
 Closed shell SCF:
 Using DIIS extrapolation, IDIIS=  1040.
 NGot= 12348030976 LenX= 12345655041 LenY= 12345643575
 Requested convergence on RMS density matrix=1.00D-08 within  32 cycles.
 Requested convergence on MAX density matrix=1.00D-06.
 Requested convergence on             energy=1.00D-06.
 No special actions if energy rises.
 
  Hrant - CycOpn.
 

 Cycle   1  Pass 1  IDiag  1:
 E= -76.4380641229095    
 DIIS: error= 2.68D-04 at cycle   1 NSaved=   1.
 NSaved= 1 IEnMin= 1 EnMin= -76.4380641229095     IErMin= 1 ErrMin= 2.68D-04
 ErrMax= 2.68D-04  0.00D+00 EMaxC= 1.00D-01 BMatC= 1.97D-06 BMatP= 1.97D-06
 Rises=F IDIUse=3 WtCom= 1.00D+00 WtEn= 4.38D-04
 Coeff-Com:  0.100D+01
 Coeff-En:   0.100D+01
 Coeff:      0.100D+01
 Gap=     0.394 Goal=   None    Shift=    0.000
 RMSDP=1.91D-05 MaxDP=3.56D-04              OVMax= 8.72D-04

 Cycle   2  Pass 1  IDiag  1:
 E= -76.4380677067411     Delta-E=       -0.000003583832 Rises=F Damp=F AM=F Ri=F Fa=F
 DIIS: error= 5.68D-05 at cycle   2 NSaved=   2.
 NSaved= 2 IEnMin= 2 EnMin= -76.4380677067411     IErMin= 2 ErrMin= 5.68D-05
 ErrMax= 5.68D-05  0.00D+00 EMaxC= 1.00D-01 BMatC= 8.16D-08 BMatP= 1.97D-06
 Rises=F IDIUse=1 WtCom= 1.00D+00 WtEn= 0.00D+00
 Coeff-Com: -0.184D-01 0.102D+01
 Coeff:     -0.184D-01 0.102D+01
 Gap=     0.394 Goal=   None    Shift=    0.000
 RMSDP=5.37D-06 MaxDP=1.68D-04 DE=-3.58D-06 OVMax= 2.13D-04

 Cycle   3  Pass 1  IDiag  1:
 E= -76.4380677695847     Delta-E=       -0.000000062844 Rises=F Damp=F AM=F Ri=F Fa=F
 DIIS: error= 6.53D-05 at cycle   3 NSaved=   3.
 NSaved= 3 IEnMin= 3 EnMin= -76.4380677695847     IErMin= 2 ErrMin= 5.68D-05
 ErrMax= 6.53D-05  0.00D+00 EMaxC= 1.00D-01 BMatC= 7.82D-08 BMatP= 8.16D-08
 Rises=F IDIUse=1 WtCom= 1.00D+00 WtEn= 0.00D+00
 Coeff-Com: -0.434D-01 0.523D+00 0.520D+00
 Coeff:     -0.434D-01 0.523D+00 0.520D+00
 Gap=     0.394 Goal=   None    Shift=    0.000
 RMSDP=1.78D-06 MaxDP=3.52D-05 DE=-6.28D-08 OVMax= 9.87D-05

 Cycle   4  Pass 1  IDiag  1:
 E= -76.4380678665682     Delta-E=       -0.000000096984 Rises=F Damp=F AM=F Ri=F Fa=F
 DIIS: error= 1.01D-05 at cycle   4 NSaved=   4.
 NSaved= 4 IEnMin= 4 EnMin= -76.4380678665682     IErMin= 4 ErrMin= 1.01D-05
 ErrMax= 1.01D-05  0.00D+00 EMaxC= 1.00D-01 BMatC= 1.82D-09 BMatP= 7.82D-08
 Rises=F IDIUse=1 WtCom= 1.00D+00 WtEn= 0.00D+00
 Coeff-Com: -0.953D-02 0.535D-01 0.150D+00 0.806D+00
 Coeff:     -0.953D-02 0.535D-01 0.150D+00 0.806D+00
 Gap=     0.394 Goal=   None    Shift=    0.000
 RMSDP=4.65D-07 MaxDP=1.25D-05 DE=-9.70D-08 OVMax= 2.18D-05

 Cycle   5  Pass 1  IDiag  1:
 E= -76.4380678694314     Delta-E=       -0.000000002863 Rises=F Damp=F AM=F Ri=F Fa=F
 DIIS: error= 9.64D-07 at cycle   5 NSaved=   5.
 NSaved= 5 IEnMin= 5 EnMin= -76.4380678694314     IErMin= 5 ErrMin= 9.64D-07
 ErrMax= 9.64D-07  0.00D+00 EMaxC= 1.00D-01 BMatC= 3.41D-11 BMatP= 1.82D-09
 Rises=F IDIUse=1 WtCom= 1.00D+00 WtEn= 0.00D+00
 Coeff-Com:  0.184D-02-0.297D-01-0.235D-01 0.381D-01 0.101D+01
 Coeff:      0.184D-02-0.297D-01-0.235D-01 0.381D-01 0.101D+01
 Gap=     0.394 Goal=   None    Shift=    0.000
 RMSDP=1.59D-07 MaxDP=5.10D-06 DE=-2.86D-09 OVMax= 7.51D-06

 Cycle   6  Pass 1  IDiag  1:
 E= -76.4380678695295     Delta-E=       -0.000000000098 Rises=F Damp=F AM=F Ri=F Fa=F
 DIIS: error= 1.50D-07 at cycle   6 NSaved=   6.
 NSaved= 6 IEnMin= 6 EnMin= -76.4380678695295     IErMin= 6 ErrMin= 1.50D-07
 ErrMax= 1.50D-07  0.00D+00 EMaxC= 1.00D-01 BMatC= 1.90D-13 BMatP= 3.41D-11
 Rises=F IDIUse=1 WtCom= 1.00D+00 WtEn= 0.00D+00
 Coeff-Com: -0.961D-04 0.250D-02 0.187D-02-0.753D-02-0.131D+00 0.113D+01
 Coeff:     -0.961D-04 0.250D-02 0.187D-02-0.753D-02-0.131D+00 0.113D+01
 Gap=     0.394 Goal=   None    Shift=    0.000
 RMSDP=1.65D-08 MaxDP=2.97D-07 DE=-9.81D-11 OVMax= 1.15D-06

 Cycle   7  Pass 1  IDiag  1:
 E= -76.4380678695308     Delta-E=       -0.000000000001 Rises=F Damp=F AM=F Ri=F Fa=F
 DIIS: error= 2.22D-08 at cycle   7 NSaved=   7.
 NSaved= 7 IEnMin= 7 EnMin= -76.4380678695308     IErMin= 7 ErrMin= 2.22D-08
 ErrMax= 2.22D-08  0.00D+00 EMaxC= 1.00D-01 BMatC= 6.45D-15 BMatP= 1.90D-13
 Rises=F IDIUse=1 WtCom= 1.00D+00 WtEn= 0.00D+00
 Coeff-Com: -0.153D-04 0.152D-03-0.503D-04 0.352D-03-0.104D-02-0.159D+00
 Coeff-Com:  0.116D+01
 Coeff:     -0.153D-04 0.152D-03-0.503D-04 0.352D-03-0.104D-02-0.159D+00
 Coeff:      0.116D+01
 Gap=     0.394 Goal=   None    Shift=    0.000
 RMSDP=2.25D-09 MaxDP=3.73D-08 DE=-1.35D-12 OVMax= 1.96D-07

 SCF Done:  E(RCAM-B3LYP) =  -76.4380678695     A.U. after    7 cycles
            NFock=  7  Conv=0.23D-08     -V/T= 2.0056
 KE=          76.013539 PE=        -198.998600 EE=          37.382616
 Leave Link  502 at Wed Sep  3 18:44:12 2025, MaxMem= 12348030976 cpu:              27.0 elap:               0.7
 (Enter /home/hhratchian/gaussian/gdv-20250101-j30+/gdv/l508.exe)
 QCSCF skips out because SCF is already converged.
 Leave Link  508 at Wed Sep  3 18:44:12 2025, MaxMem= 12348030976 cpu:               0.1 elap:               0.0
 (Enter /home/hhratchian/gaussian/gdv-20250101-j30+/gdv/l701.exe)
 ... and contract with generalized density number  0.
 Compute integral first derivatives.
   4 Symmetry operations used in ECPInt.
 ECPInt:  NShTT=     528 NPrTT=    1270 LenC2=     529 LenP2D=    1251.
 LDataN:  DoStor=T MaxTD1= 7 Len=  274
 Leave Link  701 at Wed Sep  3 18:44:12 2025, MaxMem= 12348030976 cpu:               6.7 elap:               0.2
 (Enter /home/hhratchian/gaussian/gdv-20250101-j30+/gdv/l702.exe)
 L702 exits ... SP integral derivatives will be done elsewhere.
 Leave Link  702 at Wed Sep  3 18:44:12 2025, MaxMem= 12348030976 cpu:               0.1 elap:               0.0
 (Enter /home/hhratchian/gaussian/gdv-20250101-j30+/gdv/l703.exe)
 Integral derivatives from FoFJK, PRISM(SPDF).
 Compute integral first derivatives, UseDBF=F ICtDFT=           0.
 Calling FoFJK, ICntrl=      2127 FMM=F ISym2X=1 I1Cent= 0 IOpClX= 0 NMat=1 NMatS=1 NMatT=0.
 FoFJK:  IHMeth= 1 ICntrl=    2127 DoSepK=T KAlg= 0 I1Cent=           0 FoldK=F
 IRaf=         1 NMat=       1 IRICut=       1 DoRegI=T DoRafI=F ISym2E= 1 IDoP0=0 IntGTp=1.
 FoFCou: FMM=F IPFlag=           0 FMFlag=      100000 FMFlg1=         800
         NFxFlg=           0 DoJE=F BraDBF=F KetDBF=F FulRan=T
         wScrn=  0.000000 ICntrl=      2527 IOpCl=  0 I1Cent=           0 NGrid=           0
         NMat0=    1 NMatS0=      1 NMatT0=    0 NMatD0=    1 NMtDS0=    0 NMtDT0=    0
 Petite list used in FoFCou.
 Leave Link  703 at Wed Sep  3 18:44:13 2025, MaxMem= 12348030976 cpu:              28.0 elap:               0.7
 (Enter /home/hhratchian/gaussian/gdv-20250101-j30+/gdv/l716.exe)
 Dipole        =-3.97146779D-17 0.00000000D+00-7.39056238D-01
 ***** Axes restored to original set *****
 -------------------------------------------------------------------
 Center     Atomic                   Forces (Hartrees/Bohr)
 Number     Number              X              Y              Z
 -------------------------------------------------------------------
      1        8           0.000000000   -0.000000000   -0.000056742
      2        1           0.000052171    0.000000000    0.000028371
      3        1          -0.000052171    0.000000000    0.000028371
 -------------------------------------------------------------------
 Cartesian Forces:  Max     0.000056742 RMS     0.000033785
 Leave Link  716 at Wed Sep  3 18:44:13 2025, MaxMem= 12348030976 cpu:               0.1 elap:               0.0
 (Enter /home/hhratchian/gaussian/gdv-20250101-j30+/gdv/l103.exe)

 GradGradGradGradGradGradGradGradGradGradGradGradGradGradGradGradGradGrad
 Berny optimization.
 Using GEDIIS/GDIIS optimizer.
 FormGI is forming the generalized inverse of G from B-inverse, IUseBI=4.
 NTrRot=    -1 NTRed=     3 NAtoms=     3 NSkip=     0 NRank=     3 IsLin=F EigSml=7.8324D-01
 Internal  Forces:  Max     0.000058701 RMS     0.000048846
 Search for a local minimum.
 Step number   4 out of a maximum of   20
 All quantities printed in internal units (Hartrees-Bohrs-Radians)
 RMS Force = .48846D-04 SwitMx=.10000D-02 MixMth= 2
 Mixed Optimization -- En-DIIS/RFO-DIIS
 Swapping is turned off.
 Update second derivatives using D2CorX and points    1    2    3    4
 DE= -5.52D-06 DEPred=-5.56D-06 R= 9.93D-01
 TightC=F SS=  1.41D+00  RLast= 8.45D-03 DXNew= 6.9951D-01 2.5353D-02
 Trust test= 9.93D-01 RLast= 8.45D-03 DXMaxT set to 4.16D-01
 The second derivative matrix:
                          R1        R2        A1
           R1           0.64585
           R2          -0.02940   0.64585
           A1           0.03418   0.03418   0.15735
 ITU=  1  1  1  0
     Eigenvalues ---    0.15232   0.62148   0.67525
 En-DIIS/RFO-DIIS/Sim-DIIS IScMMF=       -3 using points:     4    3
 RFO step:  Lambda=-1.18063473D-08.
 NNeg= 0 NGDIIS= 2 SimSw=  2.50D-01 Rises=F DC= -5.52D-06 SmlDif=  1.00D-05
 NRisDI= 0 DoIntr=F SqrtH=F CThrHd= 10.0 CDAdj=  3.0
 RMS Error=  0.8345296034D-04 NUsed= 2 OKEnD=F EnDIS=F
 InvSVX:  RCond= 1.79D-05 Info=           0 Equed=N FErr=  9.00D-16 BErr=  3.98D-17
 DidBck=FF Rises=F RFO-DIIS coefs:    1.00631   -0.00631
 GrdOpt: GIC=T ITstSp=  0 NP=   4 DidLin=F DidDIS=T IDoGRo=0 IDoRot=0
         ISwap=0 XLin= 0.000 DXMaxT= 0.416
 Iteration  1 RMS(Cart)=  0.00005101 RMS(Int)=  0.00000000
 Iteration  2 RMS(Cart)=  0.00000000 RMS(Int)=  0.00000000
 ClnCor:  largest displacement from symmetrization is 2.22D-16 for atom     3.
 Variable       Old X    -DE/DX   Delta X   Delta X   Delta X     New X
                                 (Linear)    (Quad)   (Total)
    R1        1.81443   0.00006  -0.00000   0.00009   0.00009   1.81452
    R2        1.81443   0.00006  -0.00000   0.00009   0.00009   1.81452
    A1        1.84131   0.00002   0.00005   0.00001   0.00006   1.84138
         Item               Value     Threshold  Converged?
 Maximum Force            0.000059     0.000450     YES
 RMS     Force            0.000049     0.000300     YES
 Maximum Displacement     0.000108     0.001800     YES
 RMS     Displacement     0.000088     0.001200     YES
 Predicted change in Energy=-5.903174D-09
 Optimization completed.
    -- Stationary point found.
                           ----------------------------
                           !   Optimized Parameters   !
                           ! (Angstroms and Degrees)  !
 --------------------------                            --------------------------
 ! Name  Definition              Value          Derivative Info.                !
 --------------------------------------------------------------------------------
 ! R1    R(1,2)                  0.9602         -DE/DX =    0.0001              !
 ! R2    R(1,3)                  0.9602         -DE/DX =    0.0001              !
 ! A1    A(2,1,3)              105.4995         -DE/DX =    0.0                 !
 --------------------------------------------------------------------------------
 Lowest energy point so far.  Saving SCF results.
 Largest change from initial coordinates is atom    1       0.026 Angstoms.
 GradGradGradGradGradGradGradGradGradGradGradGradGradGradGradGradGradGrad

 Leave Link  103 at Wed Sep  3 18:44:13 2025, MaxMem= 12348030976 cpu:               1.6 elap:               0.1
 (Enter /home/hhratchian/gaussian/gdv-20250101-j30+/gdv/l202.exe)
                          Input orientation:                          
 ---------------------------------------------------------------------
 Center     Atomic      Atomic             Coordinates (Angstroms)
 Number     Number       Type             X           Y           Z
 ---------------------------------------------------------------------
      1          8           0       -0.000000    0.000000   -0.051264
      2          1           0        0.764284    0.000000    0.529916
      3          1           0       -0.764284   -0.000000    0.529916
 ---------------------------------------------------------------------
                    Distance matrix (angstroms):
                    1          2          3
     1  O    0.000000
     2  H    0.960156   0.000000
     3  H    0.960156   1.528567   0.000000
 Stoichiometry    H2O
 Framework group  C2V[C2(O),SGV(H2)]
 Deg. of freedom     2
 Full point group                 C2V     NOp   4
 RotChk:  IX=0 Diff= 7.04D-16
 Largest Abelian subgroup         C2V     NOp   4
 Largest concise Abelian subgroup C2      NOp   2
                         Standard orientation:                         
 ---------------------------------------------------------------------
 Center     Atomic      Atomic             Coordinates (Angstroms)
 Number     Number       Type             X           Y           Z
 ---------------------------------------------------------------------
      1          8           0        0.000000   -0.000000    0.116236
      2          1           0       -0.000000    0.764284   -0.464944
      3          1           0       -0.000000   -0.764284   -0.464944
 ---------------------------------------------------------------------
 Rotational constants (GHZ):         835.8452374         429.2327555         283.5968663
 Leave Link  202 at Wed Sep  3 18:44:13 2025, MaxMem= 12348030976 cpu:               0.9 elap:               0.0
 (Enter /home/hhratchian/gaussian/gdv-20250101-j30+/gdv/l601.exe)
 Copying SCF densities to generalized density rwf, IOpCl= 0 IROHF=0.
 
 **********************************************************************
 
               Population analysis using the SCF Density.
 
 **********************************************************************
 
 Orbital symmetries:
       Occupied  (A1) (A1) (B2) (A1) (B1)
       Virtual   (A1) (B2) (A1) (B1) (A1) (B2) (B2) (A1) (A2) (B1)
                 (A1) (B2) (A1) (B2) (B2) (A1) (A1) (A2) (B1) (A1)
                 (B1) (A1) (B1) (B2) (A2) (B2) (A1) (A1) (B2) (B1)
                 (B2) (A1) (A2) (B2) (A2) (A1) (B1) (A1) (B2) (B2)
                 (A1) (B1) (A2) (A1) (A1) (B1) (B2) (A1) (B2) (B1)
                 (A1) (B2) (A2) (B2) (A1) (B1) (A2) (A1) (B2) (B1)
                 (A2) (B1) (A1) (B2) (A1) (B2) (B2) (A2) (B2) (A1)
                 (B1) (A1) (A1) (B2) (B1) (A1) (B1) (B1) (A1) (A2)
                 (A2) (B2) (A1) (A1) (B2) (B2) (A1)
 The electronic state is 1-A1.
 Alpha  occ. eigenvalues --      -19.21104      -1.09972      -0.60976      -0.46613      -0.39279
 Alpha virt. eigenvalues --        0.00119       0.03383       0.09945       0.12299       0.13049
 Alpha virt. eigenvalues --        0.14387       0.17995       0.20041       0.22148       0.25251
 Alpha virt. eigenvalues --        0.25820       0.33168       0.36555       0.38705       0.51357
 Alpha virt. eigenvalues --        0.56606       0.61749       0.63600       0.63932       0.73099
 Alpha virt. eigenvalues --        0.75641       0.77897       0.81360       0.81483       0.83439
 Alpha virt. eigenvalues --        0.84876       0.86767       0.92380       0.93273       0.96590
 Alpha virt. eigenvalues --        1.02876       1.08463       1.09103       1.15308       1.38242
 Alpha virt. eigenvalues --        1.41608       1.44747       1.63145       1.66796       1.80582
 Alpha virt. eigenvalues --        1.92536       2.05916       2.11621       2.12722       2.19456
 Alpha virt. eigenvalues --        2.23030       2.23962       2.27798       2.48332       2.49870
 Alpha virt. eigenvalues --        2.55019       2.64026       2.68002       3.39091       3.49173
 Alpha virt. eigenvalues --        3.72358       3.78480       3.95333       4.01361       4.07210
 Alpha virt. eigenvalues --        4.14161       4.15483       4.15823       4.22585       4.37341
 Alpha virt. eigenvalues --        4.51775       4.87920       4.88112       4.97581       5.00158
 Alpha virt. eigenvalues --        5.18881       5.36202       5.79155       6.13296       6.32128
 Alpha virt. eigenvalues --        6.49557       6.72744       6.81439       6.86477       6.90147
 Alpha virt. eigenvalues --        6.92162       6.92542       7.11251       7.48167       7.48987
 Alpha virt. eigenvalues --        8.34206      15.02828
          Condensed to atoms (all electrons):
               1          2          3
     1  O    7.824917   0.260182   0.260182
     2  H    0.260182   0.565794   0.001384
     3  H    0.260182   0.001384   0.565794
 Mulliken charges:
               1
     1  O   -0.345281
     2  H    0.172640
     3  H    0.172640
 Sum of Mulliken charges=  -0.00000
 Mulliken charges with hydrogens summed into heavy atoms:
               1
     1  O   -0.000000
 Electronic spatial extent (au):  <R**2>=             20.0715
 Charge=             -0.0000 electrons
 Dipole moment (field-independent basis, Debye):
    X=             -0.0000    Y=             -0.0000    Z=             -1.8785  Tot=              1.8785
 Quadrupole moment (field-independent basis, Debye-Ang):
   XX=             -7.8192   YY=             -4.4463   ZZ=             -6.5241
   XY=              0.0000   XZ=              0.0000   YZ=             -0.0000
 Traceless Quadrupole moment (field-independent basis, Debye-Ang):
   XX=             -1.5560   YY=              1.8169   ZZ=             -0.2609
   XY=              0.0000   XZ=              0.0000   YZ=             -0.0000
 Octapole moment (field-independent basis, Debye-Ang**2):
  XXX=              0.0000  YYY=              0.0000  ZZZ=             -0.9884  XYY=             -0.0000
  XXY=              0.0000  XXZ=             -0.2097  XZZ=              0.0000  YZZ=              0.0000
  YYZ=             -1.3261  XYZ=             -0.0000
 Hexadecapole moment (field-independent basis, Debye-Ang**3):
 XXXX=             -7.8178 YYYY=             -6.7353 ZZZZ=             -8.1628 XXXY=             -0.0000
 XXXZ=             -0.0000 YYYX=             -0.0000 YYYZ=             -0.0000 ZZZX=             -0.0000
 ZZZY=             -0.0000 XXYY=             -2.7669 XXZZ=             -2.7094 YYZZ=             -2.1861
 XXYZ=             -0.0000 YYXZ=              0.0000 ZZXY=             -0.0000
 N-N=           9.164377 E-N=        -198.998599  KE=          76.013539
 Symmetry A1   KE=          67.808875
 Symmetry A2   KE=           0.000000
 Symmetry B1   KE=           4.515333
 Symmetry B2   KE=           3.689331
 No NMR shielding tensors so no spin-rotation constants.
 Leave Link  601 at Wed Sep  3 18:44:13 2025, MaxMem= 12348030976 cpu:               4.6 elap:               0.2
 (Enter /home/hhratchian/gaussian/gdv-20250101-j30+/gdv/local/l9999.exe)
 Unable to Open any file for archive entry.
 1\1\GINC-GNODE009\FOpt\RCAM-B3LYP\Gen\H2O1\AABOUTAKA\03-Sep-2025\0\\#p
  CAM-B3LYP guess=read chkbasis geom=allcheck Opt Freq int=superfinegri
 d scf=xqc\\H2O — CAM-B3LYP/genecp q=0 m=1 [1/3: Stability]\\0,1\O,0.
 ,0.,-0.0512641208\H,0.7642837085,0.,0.5299160604\H,-0.7642837085,0.,0.
 5299160604\\Version=ES64L-GDVRevJ.30+\State=1-A1\HF=-76.4380679\RMSD=2
 .253e-09\RMSF=3.379e-05\Dipole=0.,0.,0.7390562\Quadrupole=1.3508122,-1
 .1568438,-0.1939684,0.,0.,0.\PG=C02V [C2(O1),SGV(H2)]\\@
 The archive entry for this job was punched.


 GETTING A SIMPLE ANSWER FROM A PROFESSOR IS LIKE
 GETTING A THIMBLE OF WATER FROM A FIRE HYDRANT.
     -- PROF. LEN SHAPIRO, NDSU
 Leave Link 9999 at Wed Sep  3 18:44:14 2025, MaxMem= 12348030976 cpu:               1.5 elap:               0.1
 Job cpu time:       0 days  0 hours  5 minutes 39.5 seconds.
 Elapsed time:       0 days  0 hours  0 minutes 19.0 seconds.
 File lengths (MBytes):  RWF=     38 Int=      0 D2E=      0 Chk=     67 Scr=      2
 Normal termination of Gaussian DV at Wed Sep  3 18:44:14 2025.
 (Enter /home/hhratchian/gaussian/gdv-20250101-j30+/gdv/local/l1.exe)
 Link1:  Proceeding to internal job step number  2.
 ----------------------------------------------------------------------
 #P Geom=AllCheck Guess=TCheck SCRF=Check GenChk RCAM-B3LYP/ChkBas Freq
 ----------------------------------------------------------------------
 1/10=4,29=7,30=1,38=1,40=1/1,3;
 2/12=2/2;
 3/5=7,6=2,11=2,14=-4,25=1,30=1,67=1,70=2,71=2,74=-40,75=-7,82=7,116=1,140=1,187=7/1,2,3;
 4/5=101/1;
 5/5=2,8=3,13=1,38=6,98=1/2,8;
 8/6=4,10=90,11=11/1;
 11/6=1,8=1,9=11,15=111,16=1/1,2,10;
 10/6=1/2;
 6/7=2,8=2,9=2,10=2,28=1/1;
 7/8=1,10=1,25=1/1,2,3,16;
 1/10=4,30=1/3;
 99//99;
 Leave Link    1 at Wed Sep  3 18:44:14 2025, MaxMem= 12348030976 cpu:               0.1 elap:               0.0
 (Enter /home/hhratchian/gaussian/gdv-20250101-j30+/gdv/local/l101.exe)
 
  Hrant - IAPOps =                         0
  Hrant - IAPOp1 =                         0
  Hrant - IAPOp2 =                         0
  Hrant - DoAP   =   F
 
 Structure from the checkpoint file:  "H2O_CAM-B3LYP_genecp_q0_m1.chk"
 -------------------------------------------------
 H2O — CAM-B3LYP/genecp q=0 m=1 [1/3: Stability]
 -------------------------------------------------
 Charge =     0 Multiplicity =     1
 Redundant internal coordinates found in file.  (GICs).
 O,0,0.,0.,-0.0512641208
 H,0,0.7642837085,0.,0.5299160604
 H,0,-0.7642837085,0.,0.5299160604
 
 Recover connectivity data from disk.
 Reading GIC definitions from chk.
 Skipping GIC derivative info from chk, if any.
 No input coordinate modifications requested.
 Forming B-matrix definitions.
 Forming B-matrix derivative definitions.
 ITRead=  0  0  0
 MicOpt= -1 -1 -1
 NAtoms=      3 NQM=        3 NQMF=       0 NMMI=      0 NMMIF=      0
                NMic=       0 NMicF=      0.
                    Isotopes and Nuclear Properties:
 (Nuclear quadrupole moments (NQMom) in fm**2, nuclear magnetic moments (NMagM)
  in nuclear magnetons)

  Atom         1           2           3
 IAtWgt=          16           1           1
 AtmWgt=  15.9949146   1.0078250   1.0078250
 NucSpn=           0           1           1
 AtZEff=    5.600000    1.000000    1.000000
 NQMom=    0.0000000   0.0000000   0.0000000
 NMagM=    0.0000000   2.7928460   2.7928460
 AtZNuc=   8.0000000   1.0000000   1.0000000
 Leave Link  101 at Wed Sep  3 18:44:14 2025, MaxMem= 12348030976 cpu:               1.1 elap:               0.3
 (Enter /home/hhratchian/gaussian/gdv-20250101-j30+/gdv/l103.exe)

 GradGradGradGradGradGradGradGradGradGradGradGradGradGradGradGradGradGrad
 Berny optimization.
 Initialization pass.
                           ----------------------------
                           !    Initial Parameters    !
                           ! (Angstroms and Degrees)  !
 --------------------------                            --------------------------
 ! Name  Definition              Value          Derivative Info.                !
 --------------------------------------------------------------------------------
 ! R1    R(1,2)                  0.9602         calculate D2E/DX2 analytically  !
 ! R2    R(1,3)                  0.9602         calculate D2E/DX2 analytically  !
 ! A1    A(2,1,3)              105.4995         calculate D2E/DX2 analytically  !
 --------------------------------------------------------------------------------
 Trust Radius=3.00D-01 FncErr=1.00D-07 GrdErr=1.00D-07 EigMax=2.50D+02 EigMin=1.00D-04
 Number of steps in this run=      2 maximum allowed number of steps=      2.
 GradGradGradGradGradGradGradGradGradGradGradGradGradGradGradGradGradGrad

 Leave Link  103 at Wed Sep  3 18:44:14 2025, MaxMem= 12348030976 cpu:               0.1 elap:               0.0
 (Enter /home/hhratchian/gaussian/gdv-20250101-j30+/gdv/l202.exe)
                          Input orientation:                          
 ---------------------------------------------------------------------
 Center     Atomic      Atomic             Coordinates (Angstroms)
 Number     Number       Type             X           Y           Z
 ---------------------------------------------------------------------
      1          8           0       -0.000000    0.000000   -0.051264
      2          1           0        0.764284    0.000000    0.529916
      3          1           0       -0.764284   -0.000000    0.529916
 ---------------------------------------------------------------------
                    Distance matrix (angstroms):
                    1          2          3
     1  O    0.000000
     2  H    0.960156   0.000000
     3  H    0.960156   1.528567   0.000000
 Stoichiometry    H2O
 Framework group  C2V[C2(O),SGV(H2)]
 Deg. of freedom     2
 Full point group                 C2V     NOp   4
 RotChk:  IX=0 Diff= 6.14D-16
 Largest Abelian subgroup         C2V     NOp   4
 Largest concise Abelian subgroup C2      NOp   2
                         Standard orientation:                         
 ---------------------------------------------------------------------
 Center     Atomic      Atomic             Coordinates (Angstroms)
 Number     Number       Type             X           Y           Z
 ---------------------------------------------------------------------
      1          8           0        0.000000   -0.000000    0.116236
      2          1           0       -0.000000    0.764284   -0.464944
      3          1           0       -0.000000   -0.764284   -0.464944
 ---------------------------------------------------------------------
 Rotational constants (GHZ):         835.8452374         429.2327555         283.5968663
 Leave Link  202 at Wed Sep  3 18:44:14 2025, MaxMem= 12348030976 cpu:               0.9 elap:               0.0
 (Enter /home/hhratchian/gaussian/gdv-20250101-j30+/gdv/local/l301.exe)
 Basis read from chk: "H2O_CAM-B3LYP_genecp_q0_m1.chk" (5D, 7F)
 Pseudo-potential data read from chk file.
 There are    42 symmetry adapted cartesian basis functions of A1  symmetry.
 There are    12 symmetry adapted cartesian basis functions of A2  symmetry.
 There are    20 symmetry adapted cartesian basis functions of B1  symmetry.
 There are    31 symmetry adapted cartesian basis functions of B2  symmetry.
 There are    35 symmetry adapted basis functions of A1  symmetry.
 There are    12 symmetry adapted basis functions of A2  symmetry.
 There are    18 symmetry adapted basis functions of B1  symmetry.
 There are    27 symmetry adapted basis functions of B2  symmetry.
    92 basis functions,   126 primitive gaussians,   105 cartesian basis functions
     5 alpha electrons        5 beta electrons
       nuclear repulsion energy         9.1643767021 Hartrees.
 IExCor=   2004019 DFT=T Ex+Corr=CAM-B3LYP ScaHFX=  1.000000
 ScaDFX=  1.000000  1.000000  1.000000  0.810000  1.000000  0.000000
 ScaDFX=  0.000000  0.000000  0.000000  0.000000  0.000000  0.000000
 Grid=SuperFine IRanWt=     -1 IRanGd=            0 ICorTp=0 IEDCtl=  2004
 HFx  wShort=  0.000000 wLong=  0.330000 cFull=  0.190000 cShort=  0.000000 cLong=  0.460000
 DFx  wShort=  0.330000 wLong=  0.000000 cFull=  0.350000 cShort=  0.460000 cLong=  0.000000
 NAtoms=    3 NActive=    3 NUniq=    2 SFac= 2.25D+00 NAtFMM=   60 NAOKFM=F Big=F
 Integral buffers will be    131072 words long.
 Raffenetti 2 integral format.
 Two-electron integral symmetry is turned on.
 No density basis found on file 200724.
 Leave Link  301 at Wed Sep  3 18:44:14 2025, MaxMem= 12348030976 cpu:               0.2 elap:               0.1
 (Enter /home/hhratchian/gaussian/gdv-20250101-j30+/gdv/l302.exe)
 NPDir=0 NMtPBC=     1 NCelOv=     1 NCel=       1 NClECP=     1 NCelD=      1
         NCelK=      1 NCelE2=     1 NClLst=     1 CellRange=     0.0.
 One-electron integrals computed using PRISM.
 One-electron integral symmetry used in STVInt
   4 Symmetry operations used in ECPInt.
 ECPInt:  NShTT=     528 NPrTT=    1270 LenC2=     529 LenP2D=    1251.
 LDataN:  DoStor=T MaxTD1= 6 Len=  172
 NBasis=    92 RedAO= T EigKep=  3.85D-04  NBF=    35    12    18    27
 NBsUse=    92 1.00D-06 EigRej= -1.00D+00 NBFU=    35    12    18    27
 Precomputing XC quadrature grid using
 IXCGrd=   9 Grid=SuperFine IRanWt=          -1 IRanGd=           0 AccXCQ= 0.00D+00.
 Generated NRdTot=       0 NPtTot=      198840 NUsed=           0 NTot=          64
 NSgBfM=   105   105   105   105   105 MxSgAt=     3 MxSgA2=     3 SizInc=   0.000
 NMBTot=     1918 MaxBatPerAtom=      131 MaxMicBPerAtom=      649 NBfPt=            16897178.
 Leave Link  302 at Wed Sep  3 18:44:14 2025, MaxMem= 12348030976 cpu:               6.1 elap:               0.2
 (Enter /home/hhratchian/gaussian/gdv-20250101-j30+/gdv/l303.exe)
 DipDrv:  MaxL=1.
 Leave Link  303 at Wed Sep  3 18:44:14 2025, MaxMem= 12348030976 cpu:               0.9 elap:               0.1
 (Enter /home/hhratchian/gaussian/gdv-20250101-j30+/gdv/l401.exe)
 Initial guess from the checkpoint file:  "H2O_CAM-B3LYP_genecp_q0_m1.chk"
 B after Tr=     0.000000   -0.000000   -0.000000
         Rot=    1.000000   -0.000000    0.000000   -0.000000 Ang=   0.00 deg.
 AO Guess basis will be translated and rotated to current coordinates.
 JPrj=2 DoOrth=T DoCkMO=T.
 Initial guess orbital symmetries:
       Occupied  (A1) (A1) (B2) (A1) (B1)
       Virtual   (A1) (B2) (A1) (B1) (A1) (B2) (B2) (A1) (A2) (B1)
                 (A1) (B2) (A1) (B2) (B2) (A1) (A1) (A2) (B1) (A1)
                 (B1) (A1) (B1) (B2) (A2) (B2) (A1) (A1) (B2) (B1)
                 (B2) (A1) (A2) (B2) (A2) (A1) (B1) (A1) (B2) (B2)
                 (A1) (B1) (A2) (A1) (A1) (B1) (B2) (A1) (B2) (B1)
                 (A1) (B2) (A2) (B2) (A1) (B1) (A2) (A1) (B2) (B1)
                 (A2) (B1) (A1) (B2) (A1) (B2) (B2) (A2) (B2) (A1)
                 (B1) (A1) (A1) (B2) (B1) (A1) (B1) (B1) (A1) (A2)
                 (A2) (B2) (A1) (A1) (B2) (B2) (A1)
 The electronic state of the initial guess is 1-A1.
 Leave Link  401 at Wed Sep  3 18:44:15 2025, MaxMem= 12348030976 cpu:               1.6 elap:               0.1
 (Enter /home/hhratchian/gaussian/gdv-20250101-j30+/gdv/local/l502.exe)
 Keep R1 ints in memory in symmetry-blocked form, NReq=71129321.
 FoFCou: FMM=F IPFlag=           0 FMFlag=           0 FMFlg1=           0
         NFxFlg=           0 DoJE=F BraDBF=F KetDBF=F FulRan=T
         wScrn=  0.000000 ICntrl=       600 IOpCl=  0 I1Cent=           0 NGrid=           0
         NMat0=    1 NMatS0=   4278 NMatT0=    0 NMatD0=    1 NMtDS0=    0 NMtDT0=    0
 Petite list used in FoFCou.
 Closed shell SCF:
 Using DIIS extrapolation, IDIIS=  1040.
 NGot= 12348030976 LenX= 12345655041 LenY= 12345643575
 Requested convergence on RMS density matrix=1.00D-08 within  32 cycles.
 Requested convergence on MAX density matrix=1.00D-06.
 Requested convergence on             energy=1.00D-06.
 No special actions if energy rises.
 
  Hrant - CycOpn.
 

 Cycle   1  Pass 1  IDiag  1:
 E= -76.4380678695310    
 DIIS: error= 3.15D-09 at cycle   1 NSaved=   1.
 NSaved= 1 IEnMin= 1 EnMin= -76.4380678695310     IErMin= 1 ErrMin= 3.15D-09
 ErrMax= 3.15D-09  0.00D+00 EMaxC= 1.00D-01 BMatC= 9.33D-17 BMatP= 9.33D-17
 Rises=F IDIUse=1 WtCom= 1.00D+00 WtEn= 0.00D+00
 Coeff-Com:  0.100D+01
 Coeff:      0.100D+01
 Gap=     0.394 Goal=   None    Shift=    0.000
 RMSDP=3.09D-10 MaxDP=7.60D-09              OVMax= 1.89D-08

 SCF Done:  E(RCAM-B3LYP) =  -76.4380678695     A.U. after    1 cycles
            NFock=  1  Conv=0.31D-09     -V/T= 2.0056
 KE=          76.013539 PE=        -198.998599 EE=          37.382616
 Leave Link  502 at Wed Sep  3 18:44:15 2025, MaxMem= 12348030976 cpu:              16.5 elap:               0.5
 (Enter /home/hhratchian/gaussian/gdv-20250101-j30+/gdv/l508.exe)
 QCSCF skips out because SCF is already converged.
 Leave Link  508 at Wed Sep  3 18:44:15 2025, MaxMem= 12348030976 cpu:               0.1 elap:               0.0
 (Enter /home/hhratchian/gaussian/gdv-20250101-j30+/gdv/l801.exe)
 DoSCS=F DFT=T ScalE2(SS,OS)=  1.000000  1.000000
 Range of M.O.s used for correlation:     1    92
 NBasis=    92 NAE=     5 NBE=     5 NFC=     0 NFV=     0
 NROrb=     92 NOA=     5 NOB=     5 NVA=    87 NVB=    87

 **** Warning!!: The largest alpha MO coefficient is  0.15863247D+02

 Leave Link  801 at Wed Sep  3 18:44:15 2025, MaxMem= 12348030976 cpu:               0.2 elap:               0.0
 (Enter /home/hhratchian/gaussian/gdv-20250101-j30+/gdv/l1101.exe)
 Using compressed storage, NAtomX=     3.
 Will process      4 centers per pass.
   4 Symmetry operations used in ECPInt.
 ECPInt:  NShTT=     528 NPrTT=    1270 LenC2=     529 LenP2D=    1251.
 LDataN:  DoStor=T MaxTD1= 7 Len=  274
 Leave Link 1101 at Wed Sep  3 18:44:15 2025, MaxMem= 12348030976 cpu:               7.4 elap:               0.2
 (Enter /home/hhratchian/gaussian/gdv-20250101-j30+/gdv/l1102.exe)
 Symmetrizing basis deriv contribution to polar:
 IMax=3 JMax=2 DiffMx= 0.00D+00
 Leave Link 1102 at Wed Sep  3 18:44:16 2025, MaxMem= 12348030976 cpu:               1.3 elap:               0.1
 (Enter /home/hhratchian/gaussian/gdv-20250101-j30+/gdv/l1110.exe)
 Forming Gx(P) for the SCF density, NAtomX=     3.
 Integral derivatives from FoFJK, PRISM(SPDF).
 Do as many integral derivatives as possible in FoFJK.
 G2DrvN: MDV=   12348030509.
 G2DrvN: will do     4 centers at a time, making    1 passes.
 Calling FoFCou, ICntrl=  3107 FMM=F I1Cent=   0 AccDes= 0.00D+00.
 FoFJK:  IHMeth= 1 ICntrl=    3107 DoSepK=T KAlg= 0 I1Cent=           0 FoldK=F
 IRaf=         1 NMat=       1 IRICut=       1 DoRegI=T DoRafI=F ISym2E= 1 IDoP0=0 IntGTp=1.
 FoFCou: FMM=F IPFlag=           0 FMFlag=      100000 FMFlg1=           0
         NFxFlg=           0 DoJE=F BraDBF=F KetDBF=F FulRan=T
         wScrn=  0.000000 ICntrl=      3507 IOpCl=  0 I1Cent=           0 NGrid=           0
         NMat0=    1 NMatS0=      1 NMatT0=    0 NMatD0=    1 NMtDS0=    0 NMtDT0=    0
 Petite list used in FoFCou.
 End of G2Drv FD prop file    721 does not exist.
 End of G2Drv FD prop file    722 does not exist.
 End of G2Drv FD prop file    788 does not exist.
 End of G2Drv FD prop file    804 does not exist.
 Leave Link 1110 at Wed Sep  3 18:44:17 2025, MaxMem= 12348030976 cpu:              44.2 elap:               1.0
 (Enter /home/hhratchian/gaussian/gdv-20250101-j30+/gdv/l1002.exe)
 Minotr:  Closed shell wavefunction.
          IDoAtm=111
          Direct CPHF calculation.
          Differentiating once with respect to electric field.
                with respect to dipole field.
          Differentiating once with respect to nuclear coordinates.
          Using symmetry in CPHF.
          Requested convergence is 1.0D-08 RMS, and 1.0D-07 maximum.
          Secondary convergence is 1.0D-12 RMS, and 1.0D-12 maximum.
          NewPWx=T KeepS1=F KeepF1=F KeepIn=T MapXYZ=F SortEE=F KeepMc=T.
         1580 words used for storage of precomputed grid.
 Keep R1 ints in memory in symmetry-blocked form, NReq=70773260.
 FoFCou: FMM=F IPFlag=           0 FMFlag=           0 FMFlg1=           0
         NFxFlg=           0 DoJE=F BraDBF=F KetDBF=F FulRan=T
         wScrn=  0.000000 ICntrl=       600 IOpCl=  0 I1Cent=           0 NGrid=           0
         NMat0=    1 NMatS0=   4278 NMatT0=    0 NMatD0=    1 NMtDS0=    0 NMtDT0=    0
 Petite list used in FoFCou.
          MDV=   12348030976 using Grid=Fine.
          Solving linear equations simultaneously, MaxMat=       0.
          There are     9 degrees of freedom in the 1st order CPHF.  IDoFFX=4 NUNeed=     9.
      9 vectors produced by pass  0 Test12= 4.83D-15 1.11D-08 XBig12= 3.48D+00 8.93D-01.
 AX will form     9 AO Fock derivatives at one time.
      9 vectors produced by pass  1 Test12= 4.83D-15 1.11D-08 XBig12= 4.64D-01 2.27D-01.
      9 vectors produced by pass  2 Test12= 4.83D-15 1.11D-08 XBig12= 1.29D-02 4.86D-02.
      9 vectors produced by pass  3 Test12= 4.83D-15 1.11D-08 XBig12= 8.05D-05 2.57D-03.
      9 vectors produced by pass  4 Test12= 4.83D-15 1.11D-08 XBig12= 5.77D-07 2.49D-04.
      9 vectors produced by pass  5 Test12= 4.83D-15 1.11D-08 XBig12= 2.74D-09 2.13D-05.
      5 vectors produced by pass  6 Test12= 4.83D-15 1.11D-08 XBig12= 1.15D-11 1.10D-06.
      2 vectors produced by pass  7 Test12= 4.83D-15 1.11D-08 XBig12= 2.07D-14 3.63D-08.
 InvSVY:  IOpt=1 It=  1 EMax= 2.22D-16
 Solved reduced A of dimension    61 with     9 vectors.
 FullF1:  Do perturbations      1 to       9.
 Isotropic polarizability for W=    0.000000        9.64 Bohr**3.
 End of Minotr FD prop file    721 does not exist.
 End of Minotr FD prop file    722 does not exist.
 End of Minotr FD prop file    788 does not exist.
 End of Minotr FD prop file    804 does not exist.
 Leave Link 1002 at Wed Sep  3 18:44:23 2025, MaxMem= 12348030976 cpu:             342.9 elap:               6.5
 (Enter /home/hhratchian/gaussian/gdv-20250101-j30+/gdv/l601.exe)
 Copying SCF densities to generalized density rwf, IOpCl= 0 IROHF=0.
 
 **********************************************************************
 
               Population analysis using the SCF Density.
 
 **********************************************************************
 
 Orbital symmetries:
       Occupied  (A1) (A1) (B2) (A1) (B1)
       Virtual   (A1) (B2) (A1) (B1) (A1) (B2) (B2) (A1) (A2) (B1)
                 (A1) (B2) (A1) (B2) (B2) (A1) (A1) (A2) (B1) (A1)
                 (B1) (A1) (B1) (B2) (A2) (B2) (A1) (A1) (B2) (B1)
                 (B2) (A1) (A2) (B2) (A2) (A1) (B1) (A1) (B2) (B2)
                 (A1) (B1) (A2) (A1) (A1) (B1) (B2) (A1) (B2) (B1)
                 (A1) (B2) (A2) (B2) (A1) (B1) (A2) (A1) (B2) (B1)
                 (A2) (B1) (A1) (B2) (A1) (B2) (B2) (A2) (B2) (A1)
                 (B1) (A1) (A1) (B2) (B1) (A1) (B1) (B1) (A1) (A2)
                 (A2) (B2) (A1) (A1) (B2) (B2) (A1)
 The electronic state is 1-A1.
 Alpha  occ. eigenvalues --      -19.21104      -1.09972      -0.60976      -0.46613      -0.39279
 Alpha virt. eigenvalues --        0.00119       0.03383       0.09945       0.12299       0.13049
 Alpha virt. eigenvalues --        0.14387       0.17995       0.20041       0.22148       0.25251
 Alpha virt. eigenvalues --        0.25820       0.33168       0.36555       0.38705       0.51357
 Alpha virt. eigenvalues --        0.56606       0.61749       0.63600       0.63932       0.73099
 Alpha virt. eigenvalues --        0.75641       0.77897       0.81360       0.81483       0.83439
 Alpha virt. eigenvalues --        0.84876       0.86767       0.92380       0.93273       0.96590
 Alpha virt. eigenvalues --        1.02876       1.08463       1.09103       1.15308       1.38242
 Alpha virt. eigenvalues --        1.41608       1.44747       1.63145       1.66796       1.80582
 Alpha virt. eigenvalues --        1.92536       2.05916       2.11621       2.12722       2.19456
 Alpha virt. eigenvalues --        2.23030       2.23962       2.27798       2.48332       2.49870
 Alpha virt. eigenvalues --        2.55019       2.64026       2.68002       3.39091       3.49173
 Alpha virt. eigenvalues --        3.72358       3.78480       3.95333       4.01361       4.07210
 Alpha virt. eigenvalues --        4.14161       4.15483       4.15823       4.22585       4.37341
 Alpha virt. eigenvalues --        4.51775       4.87920       4.88112       4.97581       5.00158
 Alpha virt. eigenvalues --        5.18881       5.36202       5.79155       6.13296       6.32128
 Alpha virt. eigenvalues --        6.49557       6.72744       6.81439       6.86477       6.90147
 Alpha virt. eigenvalues --        6.92162       6.92542       7.11251       7.48167       7.48987
 Alpha virt. eigenvalues --        8.34206      15.02828
          Condensed to atoms (all electrons):
               1          2          3
     1  O    7.824917   0.260182   0.260182
     2  H    0.260182   0.565794   0.001384
     3  H    0.260182   0.001384   0.565794
 Mulliken charges:
               1
     1  O   -0.345281
     2  H    0.172640
     3  H    0.172640
 Sum of Mulliken charges=   0.00000
 Mulliken charges with hydrogens summed into heavy atoms:
               1
     1  O    0.000000
 APT charges:
               1
     1  O   -0.528350
     2  H    0.264175
     3  H    0.264175
 Sum of APT charges=   0.00000
 APT charges with hydrogens summed into heavy atoms:
               1
     1  O    0.000000
 Electronic spatial extent (au):  <R**2>=             20.0715
 Charge=             -0.0000 electrons
 Dipole moment (field-independent basis, Debye):
    X=             -0.0000    Y=              0.0000    Z=             -1.8785  Tot=              1.8785
 Quadrupole moment (field-independent basis, Debye-Ang):
   XX=             -7.8192   YY=             -4.4463   ZZ=             -6.5241
   XY=              0.0000   XZ=              0.0000   YZ=              0.0000
 Traceless Quadrupole moment (field-independent basis, Debye-Ang):
   XX=             -1.5560   YY=              1.8169   ZZ=             -0.2609
   XY=              0.0000   XZ=              0.0000   YZ=              0.0000
 Octapole moment (field-independent basis, Debye-Ang**2):
  XXX=              0.0000  YYY=             -0.0000  ZZZ=             -0.9884  XYY=             -0.0000
  XXY=              0.0000  XXZ=             -0.2097  XZZ=              0.0000  YZZ=             -0.0000
  YYZ=             -1.3261  XYZ=             -0.0000
 Hexadecapole moment (field-independent basis, Debye-Ang**3):
 XXXX=             -7.8178 YYYY=             -6.7353 ZZZZ=             -8.1628 XXXY=             -0.0000
 XXXZ=             -0.0000 YYYX=             -0.0000 YYYZ=              0.0000 ZZZX=             -0.0000
 ZZZY=              0.0000 XXYY=             -2.7669 XXZZ=             -2.7094 YYZZ=             -2.1861
 XXYZ=             -0.0000 YYXZ=              0.0000 ZZXY=             -0.0000
 N-N=           9.164377 E-N=        -198.998599  KE=          76.013539
 Symmetry A1   KE=          67.808875
 Symmetry A2   KE=           0.000000
 Symmetry B1   KE=           4.515333
 Symmetry B2   KE=           3.689331
 No NMR shielding tensors so no spin-rotation constants.
 Leave Link  601 at Wed Sep  3 18:44:29 2025, MaxMem= 12348030976 cpu:               5.7 elap:               0.2
 (Enter /home/hhratchian/gaussian/gdv-20250101-j30+/gdv/l701.exe)
 ... and contract with generalized density number  0.
 Compute integral second derivatives.
   4 Symmetry operations used in ECPInt.
 ECPInt:  NShTT=     528 NPrTT=    1270 LenC2=     529 LenP2D=    1251.
 LDataN:  DoStor=T MaxTD1= 8 Len=  415
 Leave Link  701 at Wed Sep  3 18:44:29 2025, MaxMem= 12348030976 cpu:               9.5 elap:               0.3
 (Enter /home/hhratchian/gaussian/gdv-20250101-j30+/gdv/l702.exe)
 L702 exits ... SP integral derivatives will be done elsewhere.
 Leave Link  702 at Wed Sep  3 18:44:29 2025, MaxMem= 12348030976 cpu:               0.1 elap:               0.0
 (Enter /home/hhratchian/gaussian/gdv-20250101-j30+/gdv/l703.exe)
 Integral derivatives from FoFJK, PRISM(SPDF).
 Compute integral second derivatives, UseDBF=F ICtDFT=           0.
 Calling FoFJK, ICntrl=    100127 FMM=F ISym2X=1 I1Cent= 0 IOpClX= 0 NMat=1 NMatS=1 NMatT=0.
 FoFJK:  IHMeth= 1 ICntrl=  100127 DoSepK=T KAlg= 0 I1Cent=           0 FoldK=F
 IRaf=         1 NMat=       1 IRICut=       1 DoRegI=T DoRafI=F ISym2E= 1 IDoP0=0 IntGTp=1.
 FoFCou: FMM=F IPFlag=           0 FMFlag=      100000 FMFlg1=         800
         NFxFlg=           0 DoJE=F BraDBF=F KetDBF=F FulRan=T
         wScrn=  0.000000 ICntrl=    100527 IOpCl=  0 I1Cent=           0 NGrid=           0
         NMat0=    1 NMatS0=      1 NMatT0=    0 NMatD0=    1 NMtDS0=    0 NMtDT0=    0
 Petite list used in FoFCou.
 Leave Link  703 at Wed Sep  3 18:44:31 2025, MaxMem= 12348030976 cpu:             113.2 elap:               2.2
 (Enter /home/hhratchian/gaussian/gdv-20250101-j30+/gdv/l716.exe)
 Dipole        =-3.97146800D-17 2.70195717D-17-7.39056276D-01
 Polarizability= 9.23956903D+00-1.08883709D-13 1.01201171D+01
                 1.33812602D-13-2.40918396D-14 9.57490000D+00
 Full mass-weighted force constant matrix:
 Low frequencies ---  -31.0557  -29.9397  -27.9821    0.0019    0.0020    0.0022
 Low frequencies --- 1621.4249 3836.6851 3938.2391
 Diagonal vibrational polarizability:
        0.0000000       0.1310780       0.8397745
 Harmonic frequencies (cm**-1), IR intensities (KM/Mole), Raman scattering
 activities (A**4/AMU), depolarization ratios for plane and unpolarized
 incident light, reduced masses (AMU), force constants (mDyne/A),
 and normal coordinates:
                      1                      2                      3
                     A1                     A1                     B2
 Frequencies --   1621.4249              3836.6851              3938.2391
 Red. masses --      1.0835                 1.0444                 1.0828
 Frc consts  --      1.6783                 9.0581                 9.8951
 IR Inten    --     80.7378                 7.2889                75.5442
  Atom  AN      X      Y      Z        X      Y      Z        X      Y      Z
     1   8    -0.00   0.00  -0.07     0.00  -0.00   0.05    -0.00  -0.07  -0.00
     2   1     0.00   0.42   0.56     0.00   0.59  -0.39    -0.00   0.56  -0.43
     3   1     0.00  -0.42   0.56    -0.00  -0.59  -0.39     0.00   0.56   0.43

 -------------------
 - Thermochemistry -
 -------------------
 Temperature 298.150 Kelvin.  Pressure 1.00000 Atm.
 Atom     1 has atomic number  8 and mass  15.99491
 Atom     2 has atomic number  1 and mass   1.00783
 Atom     3 has atomic number  1 and mass   1.00783
 Molecular mass:    18.01056 amu.
 Principal axes and moments of inertia in atomic units:
                                 1                 2                 3
     Eigenvalues --            2.159181          4.204575          6.363756
           X                   0.000000          0.000000          1.000000
           Y                   1.000000          0.000000          0.000000
           Z                  -0.000000          1.000000          0.000000
 This molecule is an asymmetric top.
 Rotational symmetry number  2.
 Rotational temperatures (Kelvin)     40.11425    20.59992    13.61050
 Rotational constants (GHZ):         835.84524   429.23276   283.59687
 Zero-point vibrational energy      56202.6 (Joules/Mol)
                                   13.43276 (Kcal/Mol)
 Vibrational temperatures:   2332.87  5520.13  5666.25
          (Kelvin)
 
 Zero-point correction=                           0.021406 (Hartree/Particle)
 Thermal correction to Energy=                    0.024242
 Thermal correction to Enthalpy=                  0.025186
 Thermal correction to Gibbs Free Energy=         0.003771
 Sum of electronic and zero-point Energies=            -76.416661
 Sum of electronic and thermal Energies=               -76.413826
 Sum of electronic and thermal Enthalpies=             -76.412882
 Sum of electronic and thermal Free Energies=          -76.434297
 
                     E (Thermal)             CV                S
                      KCal/Mol        Cal/Mol-Kelvin    Cal/Mol-Kelvin
 Total                   15.212              6.010             45.071
 Electronic               0.000              0.000              0.000
 Translational            0.889              2.981             34.608
 Rotational               0.889              2.981             10.456
 Vibrational             13.435              0.049              0.007
                       Q            Log10(Q)             Ln(Q)
 Total Bot       0.184212D-01         -1.734682         -3.994253
 Total V=0       0.129299D+09          8.111596         18.677641
 Vib (Bot)       0.142526D-09         -9.846105        -22.671495
 Vib (V=0)       0.100040D+01          0.000174          0.000400
 Electronic      0.100000D+01          0.000000          0.000000
 Translational   0.300431D+07          6.477745         14.915559
 Rotational      0.430207D+02          1.633678          3.761682
 
                                          H2O — CAM-B3LYP/genecp q=0 m=1 [1/3: 
 Stability]
                                                             IR Spectrum
 
     3   3                                                                      1                                                    
     9   8                                                                      6                                                    
     3   3                                                                      2                                                    
     8   7                                                                      1                                                    
 
     X   X                                                                      X                                                    
     X   X                                                                      X                                                    
     X                                                                          X                                                    
     X                                                                          X                                                    
     X                                                                          X                                                    
     X                                                                          X                                                    
     X                                                                          X                                                    
     X                                                                          X                                                    
     X                                                                          X                                                    
     X                                                                          X                                                    
     X                                                                          X                                                    
     X                                                                          X                                                    
     X                                                                          X                                                    
     X                                                                          X                                                    
     X                                                                          X                                                    
     X                                                                          X                                                    
     X                                                                          X                                                    
     X                                                                          X                                                    
     X                                                                          X                                                    
                                                                                X                                                    
 
 ***** Axes restored to original set *****
 -------------------------------------------------------------------
 Center     Atomic                   Forces (Hartrees/Bohr)
 Number     Number              X              Y              Z
 -------------------------------------------------------------------
      1        8           0.000000000    0.000000000   -0.000056739
      2        1           0.000052169    0.000000000    0.000028369
      3        1          -0.000052169   -0.000000000    0.000028369
 -------------------------------------------------------------------
 Cartesian Forces:  Max     0.000056739 RMS     0.000033784
 Force constants in Cartesian coordinates: 
                1             2             3             4             5 
      1  0.694170D+00
      2  0.000000D+00 -0.530424D-04
      3  0.000000D+00  0.000000D+00  0.451744D+00
      4 -0.347085D+00  0.000000D+00 -0.204980D+00  0.377220D+00
      5  0.000000D+00  0.265212D-04  0.000000D+00  0.000000D+00 -0.316526D-04
      6 -0.263951D+00  0.000000D+00 -0.225872D+00  0.234465D+00  0.000000D+00
      7 -0.347085D+00  0.000000D+00  0.204980D+00 -0.301350D-01  0.000000D+00
      8  0.000000D+00  0.265212D-04  0.000000D+00  0.000000D+00  0.513138D-05
      9  0.263951D+00  0.000000D+00 -0.225872D+00 -0.294856D-01  0.000000D+00
                6             7             8             9 
      6  0.213275D+00
      7  0.294856D-01  0.377220D+00
      8  0.000000D+00  0.000000D+00 -0.316526D-04
      9  0.125974D-01 -0.234465D+00  0.000000D+00  0.213275D+00
 FormGI is forming the generalized inverse of G from B-inverse, IUseBI=4.
 NTrRot=    -1 NTRed=     3 NAtoms=     3 NSkip=     0 NRank=     3 IsLin=F EigSml=7.8324D-01
 Force constants in internal coordinates: 
                1             2             3 
      1  0.543092D+00
      2 -0.470419D-02  0.543092D+00
      3  0.296295D-01  0.296295D-01  0.156167D+00
 Leave Link  716 at Wed Sep  3 18:44:31 2025, MaxMem= 12348030976 cpu:               1.5 elap:               0.1
 (Enter /home/hhratchian/gaussian/gdv-20250101-j30+/gdv/l103.exe)

 GradGradGradGradGradGradGradGradGradGradGradGradGradGradGradGradGradGrad
 Berny optimization.
 Internal  Forces:  Max     0.000058699 RMS     0.000048845
 Search for a local minimum.
 Step number   1 out of a maximum of    2
 All quantities printed in internal units (Hartrees-Bohrs-Radians)
 Second derivative matrix not updated -- analytic derivatives used.
 The second derivative matrix:
                          R1        R2        A1
           R1           0.54309
           R2          -0.00470   0.54309
           A1           0.02963   0.02963   0.15617
 ITU=  0
     Eigenvalues ---    0.15163   0.54293   0.54780
 Angle between quadratic step and forces=  12.26 degrees.
 Linear search not attempted -- first point.
 GrdOpt: GIC=T ITstSp=  0 NP=   1 DidLin=F DidDIS=F IDoGRo=0 IDoRot=0
         ISwap=1 XLin= 0.000 DXMaxT= 0.300
 Iteration  1 RMS(Cart)=  0.00005647 RMS(Int)=  0.00000000
 Iteration  2 RMS(Cart)=  0.00000000 RMS(Int)=  0.00000000
 ClnCor:  largest displacement from symmetrization is 2.53D-15 for atom     3.
 Variable       Old X    -DE/DX   Delta X   Delta X   Delta X     New X
                                 (Linear)    (Quad)   (Total)
    R1        1.81443   0.00006   0.00000   0.00011   0.00011   1.81454
    R2        1.81443   0.00006   0.00000   0.00011   0.00011   1.81454
    A1        1.84131   0.00002   0.00000   0.00006   0.00006   1.84138
         Item               Value     Threshold  Converged?
 Maximum Force            0.000059     0.000450     YES
 RMS     Force            0.000049     0.000300     YES
 Maximum Displacement     0.000119     0.001800     YES
 RMS     Displacement     0.000098     0.001200     YES
 Predicted change in Energy=-6.717748D-09
 Optimization completed.
    -- Stationary point found.
                           ----------------------------
                           !   Optimized Parameters   !
                           ! (Angstroms and Degrees)  !
 --------------------------                            --------------------------
 ! Name  Definition              Value          Derivative Info.                !
 --------------------------------------------------------------------------------
 ! R1    R(1,2)                  0.9602         -DE/DX =    0.0001              !
 ! R2    R(1,3)                  0.9602         -DE/DX =    0.0001              !
 ! A1    A(2,1,3)              105.4995         -DE/DX =    0.0                 !
 --------------------------------------------------------------------------------
 GradGradGradGradGradGradGradGradGradGradGradGradGradGradGradGradGradGrad

 Leave Link  103 at Wed Sep  3 18:44:31 2025, MaxMem= 12348030976 cpu:               0.8 elap:               0.1
 (Enter /home/hhratchian/gaussian/gdv-20250101-j30+/gdv/local/l9999.exe)

 ----------------------------------------------------------------------

 Electric dipole moment (input orientation):
 (Debye = 10**-18 statcoulomb cm , SI units = C m)
                  (au)            (Debye)         (10**-30 SI)
   Tot        0.739056D+00      0.187849D+01      0.626598D+01
   x          0.000000D+00      0.000000D+00      0.000000D+00
   y          0.000000D+00      0.000000D+00      0.000000D+00
   z          0.739056D+00      0.187849D+01      0.626598D+01

 Dipole polarizability, Alpha (input orientation).
 (esu units = cm**3 , SI units = C**2 m**2 J**-1)
 Alpha(0;0):
               (au)            (10**-24 esu)      (10**-40 SI)
   iso        0.964486D+01      0.142922D+01      0.159022D+01
   aniso      0.769764D+00      0.114067D+00      0.126917D+00
   xx         0.101201D+02      0.149965D+01      0.166858D+01
   yx         0.000000D+00      0.000000D+00      0.000000D+00
   yy         0.923957D+01      0.136916D+01      0.152340D+01
   zx         0.000000D+00      0.000000D+00      0.000000D+00
   zy         0.000000D+00      0.000000D+00      0.000000D+00
   zz         0.957490D+01      0.141885D+01      0.157869D+01

 ----------------------------------------------------------------------

 Dipole orientation:
     8         -0.00000000          0.00000000         -0.09687515
     1          1.44428689          0.00000000          1.00139622
     1         -1.44428689         -0.00000000          1.00139622

 Electric dipole moment (dipole orientation):
 (Debye = 10**-18 statcoulomb cm , SI units = C m)
                  (au)            (Debye)         (10**-30 SI)
   Tot        0.739056D+00      0.187849D+01      0.626598D+01
   x          0.000000D+00      0.000000D+00      0.000000D+00
   y          0.000000D+00      0.000000D+00      0.000000D+00
   z          0.739056D+00      0.187849D+01      0.626598D+01

 Dipole polarizability, Alpha (dipole orientation).
 (esu units = cm**3 , SI units = C**2 m**2 J**-1)
 Alpha(0;0):
               (au)            (10**-24 esu)      (10**-40 SI)
   iso        0.964486D+01      0.142922D+01      0.159022D+01
   aniso      0.769764D+00      0.114067D+00      0.126917D+00
   xx         0.101201D+02      0.149965D+01      0.166858D+01
   yx         0.000000D+00      0.000000D+00      0.000000D+00
   yy         0.923957D+01      0.136916D+01      0.152340D+01
   zx         0.000000D+00      0.000000D+00      0.000000D+00
   zy         0.000000D+00      0.000000D+00      0.000000D+00
   zz         0.957490D+01      0.141885D+01      0.157869D+01

 ----------------------------------------------------------------------
 Unable to Open any file for archive entry.
 1\1\GINC-GNODE009\Freq\RCAM-B3LYP\Gen\H2O1\AABOUTAKA\03-Sep-2025\0\\#P
  Geom=AllCheck Guess=TCheck SCRF=Check GenChk RCAM-B3LYP/ChkBas Freq\\
 H2O — CAM-B3LYP/genecp q=0 m=1 [1/3: Stability]\\0,1\O,0.,0.,-0.0512
 641208\H,0.7642837085,0.,0.5299160604\H,-0.7642837085,0.,0.5299160604\
 \Version=ES64L-GDVRevJ.30+\State=1-A1\HF=-76.4380679\RMSD=3.093e-10\RM
 SF=3.378e-05\ZeroPoint=0.0214065\Thermal=0.024242\ETot=-76.4138259\HTo
 t=-76.4128817\GTot=-76.4342966\Dipole=0.,0.,0.7390563\DipoleDeriv=-0.5
 310556,0.,0.,0.,-0.6729263,0.,0.,0.,-0.3810678,0.2655278,0.,-0.0679902
 ,0.,0.3364632,0.,-0.0539412,0.,0.1905339,0.2655278,0.,0.0679902,0.,0.3
 364632,0.,0.0539412,0.,0.1905339\Polar=10.1201171,0.,9.239569,0.,0.,9.
 5749\Quadrupole=1.3508122,-1.1568438,-0.1939683,0.,0.,0.\PG=C02V [C2(O
 1),SGV(H2)]\NImag=0\\0.69416974,0.,-0.00005304,0.,0.,0.45174438,-0.347
 08487,0.,-0.20497959,0.37721992,0.,0.00002652,0.,0.,-0.00003165,-0.263
 95081,0.,-0.22587219,0.23446520,0.,0.21327477,-0.34708487,0.,0.2049795
 9,-0.03013505,0.,0.02948561,0.37721992,0.,0.00002652,0.,0.,0.00000513,
 0.,0.,-0.00003165,0.26395081,0.,-0.22587219,-0.02948561,0.,0.01259743,
 -0.23446520,0.,0.21327477\\0.,0.,0.00005674,-0.00005217,0.,-0.00002837
 ,0.00005217,0.,-0.00002837\\\@
 The archive entry for this job was punched.


 IT IS DOUBTED WHETHER A MAN EVER BRINGS HIS FACULTIES TO BEAR WITH THEIR FULL FORCE
 ON A SUBJECT UNTIL HE WRITES UPON IT.

                          -- CICERO
 Job cpu time:       0 days  0 hours  9 minutes 21.3 seconds.
 Elapsed time:       0 days  0 hours  0 minutes 12.2 seconds.
 File lengths (MBytes):  RWF=     38 Int=      0 D2E=      0 Chk=     67 Scr=      2
 Normal termination of Gaussian DV at Wed Sep  3 18:44:31 2025.
 Initial command:
 /home/hhratchian/gaussian/gdv-20250101-j30+/gdv/local/l1.exe "/scratch/aaboutaka/1590363/Gau-1892507.inp" -scrdir="/scratch/aaboutaka/1590363/"
 Default is to use a total of  56 processors:
                               56 via shared-memory
                                1 via Linda
 Entering Link 1 = /home/hhratchian/gaussian/gdv-20250101-j30+/gdv/local/l1.exe PID=   1897527.
  
 Copyright (c) 1988-2024, Gaussian, Inc.  All Rights Reserved.
  
 This is the private, development version of
 the Gaussian(R) DV system of programs. It is based on
 the Gaussian(R) 16 system (copyright 2016, Gaussian, Inc.),
 the Gaussian(R) 09 system (copyright 2009, Gaussian, Inc.),
 the Gaussian(R) 03 system (copyright 2003, Gaussian, Inc.),
 the Gaussian(R) 98 system (copyright 1998, Gaussian, Inc.),
 the Gaussian(R) 94 system (copyright 1995, Gaussian, Inc.),
 the Gaussian 92(TM) system (copyright 1992, Gaussian, Inc.),
 the Gaussian 90(TM) system (copyright 1990, Gaussian, Inc.),
 the Gaussian 88(TM) system (copyright 1988, Gaussian, Inc.),
 the Gaussian 86(TM) system (copyright 1986, Carnegie Mellon
 University), and the Gaussian 82(TM) system (copyright 1983,
 Carnegie Mellon University). Gaussian is a federally registered
 trademark of Gaussian, Inc.
  
 This software contains proprietary and confidential information,
 including trade secrets, belonging to Gaussian, Inc.
  
 This software is provided under written license and may be
 used, copied, transmitted, or stored only in accord with that
 written license.
  
 The following legend is applicable only to US Government
 contracts under FAR:
  
                    RESTRICTED RIGHTS LEGEND
  
 Use, reproduction and disclosure by the US Government is
 subject to restrictions as set forth in subparagraphs (a)
 and (c) of the Commercial Computer Software - Restricted
 Rights clause in FAR 52.227-19.
  
 Gaussian, Inc.
 340 Quinnipiac St., Bldg. 40, Wallingford CT 06492
  
  
 ---------------------------------------------------------------
 Warning -- This program may not be used in any manner that
 competes with the business of Gaussian, Inc. or will provide
 assistance to any competitor of Gaussian, Inc.  The licensee
 of this program is prohibited from giving any competitor of
 Gaussian, Inc. access to this program.  By using this program,
 the user acknowledges that Gaussian, Inc. is engaged in the
 business of creating and licensing software in the field of
 computational chemistry and represents and warrants to the
 licensee that it is not a competitor of Gaussian, Inc. and that
 it will not use this program in any manner prohibited above.
 ---------------------------------------------------------------
  

 Cite this work as:
 Gaussian Development Version, Revision J.30+,
 M. J. Frisch, G. W. Trucks, G. Scalmani, J. R. Cheeseman, X. Li, 
 J. Bloino, B. G. Janesko, A. V. Marenich, J. Zheng, F. Lipparini, 
 A. Jenkins, A. Liu, H. Liu, H. B. Schlegel, G. E. Scuseria, 
 M. A. Robb, V. Barone, G. A. Petersson, H. Nakatsuji, B. Mennucci, 
 C. Adamo, N. Rega, M. Caricato, H. P. Hratchian, J. V. Ortiz, 
 F. Pawlowski, A. F. Izmaylov, H. Hu, C. Liao, J. L. Sonnenberg, 
 D. Williams-Young, F. Ding, R. Gomperts, F. Egidi, J. Goings, 
 B. Peng, A. Petrone, T. Henderson, D. Ranasinghe, V. G. Zakrzewski, 
 J. Gao, G. Zheng, W. Liang, M. Hada, M. Ehara, K. Toyota, R. Fukuda, 
 J. Hasegawa, M. Ishida, T. Nakajima, Y. Honda, O. Kitao, H. Nakai, 
 T. Vreven, K. Throssell, J. A. Montgomery, Jr., J. E. Peralta, 
 F. Ogliaro, M. J. Bearpark, J. J. Heyd, E. N. Brothers, K. N. Kudin, 
 V. N. Staroverov, T. A. Keith, R. Kobayashi, J. Normand, 
 K. Raghavachari, A. P. Rendell, J. C. Burant, S. S. Iyengar, 
 M. Cossi, J. M. Millam, M. Klene, R. Cammi, R. L. Martin, O. Farkas, 
 J. B. Foresman, and D. J. Fox, Gaussian, Inc., Wallingford CT, 2024.
 
 *******************************************
 Gaussian DV:  ES64L-GDVRevJ.30+ 18-Dec-2024
                  3-Sep-2025 
 *******************************************
 %oldchk=H2O_CAM-B3LYP_genecp_q0_m1.chk
 %chk=H2O_CAM-B3LYP_genecp_q0_m1_stab.chk
 Copying data from "H2O_CAM-B3LYP_genecp_q0_m1.chk" to current chk file "H2O_CAM-B3LYP_genecp_q0_m1_stab.chk"
 IOpt=  2 FromEx=T IUOpen= 4 IOptOp= 5 NList=   0 IFRang= 0 IUIn= 4 IUOut= 2.
 ----------------------------------------------------------------------
 #p CAM-B3LYP stable=opt guess=read chkbasis geom=allcheck int=superfin
 egrid
 ----------------------------------------------------------------------
 1/29=7,38=1,172=1/1;
 2/12=2/2;
 3/5=7,6=2,11=2,14=-4,25=1,30=1,67=1,74=-40,75=-7,116=-2/1,2,3;
 4/5=1/1;
 5/5=2,38=6/2;
 6/7=2,8=2,9=2,10=2,28=1/1;
 8/6=1,10=90,11=11/1;
 9/8=-3,42=1,46=1/14;
 5/5=2,8=3,17=40,38=6/8(-2);
 6/7=2,8=2,9=2,10=2,28=1/1;
 99/5=1,9=1/99;
 Leave Link    1 at Wed Sep  3 18:44:32 2025, MaxMem= 12348030976 cpu:               0.3 elap:               0.1
 (Enter /home/hhratchian/gaussian/gdv-20250101-j30+/gdv/local/l101.exe)
 
  Hrant - IAPOps =                         0
  Hrant - IAPOp1 =                         0
  Hrant - IAPOp2 =                         0
  Hrant - DoAP   =   F
 
 Structure from the checkpoint file:  "H2O_CAM-B3LYP_genecp_q0_m1_stab.chk"
 -------------------------------------------------
 H2O — CAM-B3LYP/genecp q=0 m=1 [1/3: Stability]
 -------------------------------------------------
 Charge =     0 Multiplicity =     1
 Redundant internal coordinates found in file.  (GICs).
 O,0,0.,0.,-0.0512641208
 H,0,0.7642837085,0.,0.5299160604
 H,0,-0.7642837085,0.,0.5299160604
 
 Recover connectivity data from disk.
 Reading GIC definitions from chk.
 Reading GIC derivative info from chk.
 ITRead=  0  0  0
 MicOpt= -1 -1 -1
                           ----------------------------
                           !    Current Parameters    !
                           ! (Angstroms and Degrees)  !
 --------------------------                            --------------------------
 ! Name  Definition              Value                                          !
 --------------------------------------------------------------------------------
 ! R1    R(1,2)                  0.9602                                         !
 ! R2    R(1,3)                  0.9602                                         !
 ! A1    A(2,1,3)              105.4995                                         !
 --------------------------------------------------------------------------------
 NAtoms=      3 NQM=        3 NQMF=       0 NMMI=      0 NMMIF=      0
                NMic=       0 NMicF=      0.
                    Isotopes and Nuclear Properties:
 (Nuclear quadrupole moments (NQMom) in fm**2, nuclear magnetic moments (NMagM)
  in nuclear magnetons)

  Atom         1           2           3
 IAtWgt=          16           1           1
 AtmWgt=  15.9949146   1.0078250   1.0078250
 NucSpn=           0           1           1
 AtZEff=    5.600000    1.000000    1.000000
 NQMom=    0.0000000   0.0000000   0.0000000
 NMagM=    0.0000000   2.7928460   2.7928460
 AtZNuc=   8.0000000   1.0000000   1.0000000
 Leave Link  101 at Wed Sep  3 18:44:32 2025, MaxMem= 12348030976 cpu:               0.4 elap:               0.3
 (Enter /home/hhratchian/gaussian/gdv-20250101-j30+/gdv/l202.exe)
                          Input orientation:                          
 ---------------------------------------------------------------------
 Center     Atomic      Atomic             Coordinates (Angstroms)
 Number     Number       Type             X           Y           Z
 ---------------------------------------------------------------------
      1          8           0       -0.000000    0.000000   -0.051264
      2          1           0        0.764284    0.000000    0.529916
      3          1           0       -0.764284   -0.000000    0.529916
 ---------------------------------------------------------------------
                    Distance matrix (angstroms):
                    1          2          3
     1  O    0.000000
     2  H    0.960156   0.000000
     3  H    0.960156   1.528567   0.000000
 Stoichiometry    H2O
 Framework group  C2V[C2(O),SGV(H2)]
 Deg. of freedom     2
 Full point group                 C2V     NOp   4
 RotChk:  IX=0 Diff= 1.05D-15
 Largest Abelian subgroup         C2V     NOp   4
 Largest concise Abelian subgroup C2      NOp   2
                         Standard orientation:                         
 ---------------------------------------------------------------------
 Center     Atomic      Atomic             Coordinates (Angstroms)
 Number     Number       Type             X           Y           Z
 ---------------------------------------------------------------------
      1          8           0       -0.000000    0.000000    0.116236
      2          1           0        0.000000    0.764284   -0.464944
      3          1           0       -0.000000   -0.764284   -0.464944
 ---------------------------------------------------------------------
 Rotational constants (GHZ):         835.8452374         429.2327555         283.5968663
 Leave Link  202 at Wed Sep  3 18:44:32 2025, MaxMem= 12348030976 cpu:               0.3 elap:               0.0
 (Enter /home/hhratchian/gaussian/gdv-20250101-j30+/gdv/local/l301.exe)
 Basis read from chk: "H2O_CAM-B3LYP_genecp_q0_m1_stab.chk" (5D, 7F)
 Pseudo-potential data read from chk file.
 There are    42 symmetry adapted cartesian basis functions of A1  symmetry.
 There are    12 symmetry adapted cartesian basis functions of A2  symmetry.
 There are    20 symmetry adapted cartesian basis functions of B1  symmetry.
 There are    31 symmetry adapted cartesian basis functions of B2  symmetry.
 There are    35 symmetry adapted basis functions of A1  symmetry.
 There are    12 symmetry adapted basis functions of A2  symmetry.
 There are    18 symmetry adapted basis functions of B1  symmetry.
 There are    27 symmetry adapted basis functions of B2  symmetry.
    92 basis functions,   126 primitive gaussians,   105 cartesian basis functions
     5 alpha electrons        5 beta electrons
       nuclear repulsion energy         9.1643767021 Hartrees.
 IExCor=   2004019 DFT=T Ex+Corr=CAM-B3LYP ScaHFX=  1.000000
 ScaDFX=  1.000000  1.000000  1.000000  0.810000  1.000000  0.000000
 ScaDFX=  0.000000  0.000000  0.000000  0.000000  0.000000  0.000000
 Grid=SuperFine IRanWt=     -1 IRanGd=            0 ICorTp=0 IEDCtl=  2004
 HFx  wShort=  0.000000 wLong=  0.330000 cFull=  0.190000 cShort=  0.000000 cLong=  0.460000
 DFx  wShort=  0.330000 wLong=  0.000000 cFull=  0.350000 cShort=  0.460000 cLong=  0.000000
 NAtoms=    3 NActive=    3 NUniq=    2 SFac= 2.25D+00 NAtFMM=   60 NAOKFM=F Big=F
 Integral buffers will be    131072 words long.
 Raffenetti 2 integral format.
 Two-electron integral symmetry is turned on.
 No density basis found on file 200724.
 Leave Link  301 at Wed Sep  3 18:44:32 2025, MaxMem= 12348030976 cpu:               0.2 elap:               0.1
 (Enter /home/hhratchian/gaussian/gdv-20250101-j30+/gdv/l302.exe)
 NPDir=0 NMtPBC=     1 NCelOv=     1 NCel=       1 NClECP=     1 NCelD=      1
         NCelK=      1 NCelE2=     1 NClLst=     1 CellRange=     0.0.
 One-electron integrals computed using PRISM.
 One-electron integral symmetry used in STVInt
   4 Symmetry operations used in ECPInt.
 ECPInt:  NShTT=     528 NPrTT=    1270 LenC2=     529 LenP2D=    1251.
 LDataN:  DoStor=T MaxTD1= 6 Len=  172
 NBasis=    92 RedAO= T EigKep=  3.85D-04  NBF=    35    12    18    27
 NBsUse=    92 1.00D-06 EigRej= -1.00D+00 NBFU=    35    12    18    27
 Precomputing XC quadrature grid using
 IXCGrd=   9 Grid=SuperFine IRanWt=          -1 IRanGd=           0 AccXCQ= 0.00D+00.
 Generated NRdTot=       0 NPtTot=      198843 NUsed=           0 NTot=          64
 NSgBfM=   105   105   105   105   105 MxSgAt=     3 MxSgA2=     3 SizInc=   0.000
 NMBTot=     1925 MaxBatPerAtom=      131 MaxMicBPerAtom=      655 NBfPt=            16895542.
 Leave Link  302 at Wed Sep  3 18:44:32 2025, MaxMem= 12348030976 cpu:               3.9 elap:               0.1
 (Enter /home/hhratchian/gaussian/gdv-20250101-j30+/gdv/l303.exe)
 DipDrv:  MaxL=1.
 Leave Link  303 at Wed Sep  3 18:44:32 2025, MaxMem= 12348030976 cpu:               0.3 elap:               0.0
 (Enter /home/hhratchian/gaussian/gdv-20250101-j30+/gdv/l401.exe)
 Initial guess from the checkpoint file:  "H2O_CAM-B3LYP_genecp_q0_m1_stab.chk"
 B after Tr=    -0.000000    0.000000   -0.000000
         Rot=    1.000000    0.000000   -0.000000    0.000000 Ang=   0.00 deg.
 AO Guess basis will be translated and rotated to current coordinates.
 JPrj=2 DoOrth=T DoCkMO=T.
 Initial guess orbital symmetries:
       Occupied  (A1) (A1) (B2) (A1) (B1)
       Virtual   (A1) (B2) (A1) (B1) (A1) (B2) (B2) (A1) (A2) (B1)
                 (A1) (B2) (A1) (B2) (B2) (A1) (A1) (A2) (B1) (A1)
                 (B1) (A1) (B1) (B2) (A2) (B2) (A1) (A1) (B2) (B1)
                 (B2) (A1) (A2) (B2) (A2) (A1) (B1) (A1) (B2) (B2)
                 (A1) (B1) (A2) (A1) (A1) (B1) (B2) (A1) (B2) (B1)
                 (A1) (B2) (A2) (B2) (A1) (B1) (A2) (A1) (B2) (B1)
                 (A2) (B1) (A1) (B2) (A1) (B2) (B2) (A2) (B2) (A1)
                 (B1) (A1) (A1) (B2) (B1) (A1) (B1) (B1) (A1) (A2)
                 (A2) (B2) (A1) (A1) (B2) (B2) (A1)
 The electronic state of the initial guess is 1-A1.
 Leave Link  401 at Wed Sep  3 18:44:32 2025, MaxMem= 12348030976 cpu:               0.8 elap:               0.1
 (Enter /home/hhratchian/gaussian/gdv-20250101-j30+/gdv/local/l502.exe)
 Keep R1 ints in memory in symmetry-blocked form, NReq=71129321.
 FoFCou: FMM=F IPFlag=           0 FMFlag=           0 FMFlg1=           0
         NFxFlg=           0 DoJE=F BraDBF=F KetDBF=F FulRan=T
         wScrn=  0.000000 ICntrl=       600 IOpCl=  0 I1Cent=           0 NGrid=           0
         NMat0=    1 NMatS0=   4278 NMatT0=    0 NMatD0=    1 NMtDS0=    0 NMtDT0=    0
 Petite list used in FoFCou.
 Closed shell SCF:
 Using DIIS extrapolation, IDIIS=  1040.
 NGot= 12348030976 LenX= 12345655041 LenY= 12345643575
 Requested convergence on RMS density matrix=1.00D-08 within 128 cycles.
 Requested convergence on MAX density matrix=1.00D-06.
 Requested convergence on             energy=1.00D-06.
 No special actions if energy rises.
 
  Hrant - CycOpn.
 

 Cycle   1  Pass 1  IDiag  1:
 E= -76.4380678695310    
 DIIS: error= 1.81D-09 at cycle   1 NSaved=   1.
 NSaved= 1 IEnMin= 1 EnMin= -76.4380678695310     IErMin= 1 ErrMin= 1.81D-09
 ErrMax= 1.81D-09  0.00D+00 EMaxC= 1.00D-01 BMatC= 5.39D-17 BMatP= 5.39D-17
 Rises=F IDIUse=1 WtCom= 1.00D+00 WtEn= 0.00D+00
 Coeff-Com:  0.100D+01
 Coeff:      0.100D+01
 Gap=     0.394 Goal=   None    Shift=    0.000
 RMSDP=1.39D-10 MaxDP=2.79D-09              OVMax= 6.13D-09

 SCF Done:  E(RCAM-B3LYP) =  -76.4380678695     A.U. after    1 cycles
            NFock=  1  Conv=0.14D-09     -V/T= 2.0056
 KE=          76.013539 PE=        -198.998599 EE=          37.382616
 Leave Link  502 at Wed Sep  3 18:44:33 2025, MaxMem= 12348030976 cpu:              15.2 elap:               0.5
 (Enter /home/hhratchian/gaussian/gdv-20250101-j30+/gdv/l601.exe)
 Copying SCF densities to generalized density rwf, IOpCl= 0 IROHF=0.
 
 **********************************************************************
 
               Population analysis using the SCF Density.
 
 **********************************************************************
 
 Orbital symmetries:
       Occupied  (A1) (A1) (B2) (A1) (B1)
       Virtual   (A1) (B2) (A1) (B1) (A1) (B2) (B2) (A1) (A2) (B1)
                 (A1) (B2) (A1) (B2) (B2) (A1) (A1) (A2) (B1) (A1)
                 (B1) (A1) (B1) (B2) (A2) (B2) (A1) (A1) (B2) (B1)
                 (B2) (A1) (A2) (B2) (A2) (A1) (B1) (A1) (B2) (B2)
                 (A1) (B1) (A2) (A1) (A1) (B1) (B2) (A1) (B2) (B1)
                 (A1) (B2) (A2) (B2) (A1) (B1) (A2) (A1) (B2) (B1)
                 (A2) (B1) (A1) (B2) (A1) (B2) (B2) (A2) (B2) (A1)
                 (B1) (A1) (A1) (B2) (B1) (A1) (B1) (B1) (A1) (A2)
                 (A2) (B2) (A1) (A1) (B2) (B2) (A1)
 The electronic state is 1-A1.
 Alpha  occ. eigenvalues --      -19.21104      -1.09972      -0.60976      -0.46613      -0.39279
 Alpha virt. eigenvalues --        0.00119       0.03383       0.09945       0.12299       0.13049
 Alpha virt. eigenvalues --        0.14387       0.17995       0.20041       0.22148       0.25251
 Alpha virt. eigenvalues --        0.25820       0.33168       0.36555       0.38705       0.51357
 Alpha virt. eigenvalues --        0.56606       0.61749       0.63600       0.63932       0.73099
 Alpha virt. eigenvalues --        0.75641       0.77897       0.81360       0.81483       0.83439
 Alpha virt. eigenvalues --        0.84876       0.86767       0.92380       0.93273       0.96590
 Alpha virt. eigenvalues --        1.02876       1.08463       1.09103       1.15308       1.38242
 Alpha virt. eigenvalues --        1.41608       1.44747       1.63145       1.66796       1.80582
 Alpha virt. eigenvalues --        1.92536       2.05916       2.11621       2.12722       2.19456
 Alpha virt. eigenvalues --        2.23030       2.23962       2.27798       2.48332       2.49870
 Alpha virt. eigenvalues --        2.55019       2.64026       2.68002       3.39091       3.49173
 Alpha virt. eigenvalues --        3.72358       3.78480       3.95333       4.01361       4.07210
 Alpha virt. eigenvalues --        4.14161       4.15483       4.15823       4.22585       4.37341
 Alpha virt. eigenvalues --        4.51775       4.87920       4.88112       4.97581       5.00158
 Alpha virt. eigenvalues --        5.18881       5.36202       5.79155       6.13296       6.32128
 Alpha virt. eigenvalues --        6.49557       6.72744       6.81439       6.86477       6.90147
 Alpha virt. eigenvalues --        6.92162       6.92542       7.11251       7.48167       7.48987
 Alpha virt. eigenvalues --        8.34206      15.02828
          Condensed to atoms (all electrons):
               1          2          3
     1  O    7.824917   0.260182   0.260182
     2  H    0.260182   0.565794   0.001384
     3  H    0.260182   0.001384   0.565794
 Mulliken charges:
               1
     1  O   -0.345281
     2  H    0.172640
     3  H    0.172640
 Sum of Mulliken charges=  -0.00000
 Mulliken charges with hydrogens summed into heavy atoms:
               1
     1  O   -0.000000
 Electronic spatial extent (au):  <R**2>=             20.0715
 Charge=             -0.0000 electrons
 Dipole moment (field-independent basis, Debye):
    X=             -0.0000    Y=             -0.0000    Z=             -1.8785  Tot=              1.8785
 Quadrupole moment (field-independent basis, Debye-Ang):
   XX=             -7.8192   YY=             -4.4463   ZZ=             -6.5241
   XY=              0.0000   XZ=              0.0000   YZ=             -0.0000
 Traceless Quadrupole moment (field-independent basis, Debye-Ang):
   XX=             -1.5560   YY=              1.8169   ZZ=             -0.2609
   XY=              0.0000   XZ=              0.0000   YZ=             -0.0000
 Octapole moment (field-independent basis, Debye-Ang**2):
  XXX=              0.0000  YYY=             -0.0000  ZZZ=             -0.9884  XYY=             -0.0000
  XXY=             -0.0000  XXZ=             -0.2097  XZZ=              0.0000  YZZ=              0.0000
  YYZ=             -1.3261  XYZ=             -0.0000
 Hexadecapole moment (field-independent basis, Debye-Ang**3):
 XXXX=             -7.8178 YYYY=             -6.7353 ZZZZ=             -8.1628 XXXY=             -0.0000
 XXXZ=             -0.0000 YYYX=             -0.0000 YYYZ=             -0.0000 ZZZX=             -0.0000
 ZZZY=             -0.0000 XXYY=             -2.7669 XXZZ=             -2.7094 YYZZ=             -2.1861
 XXYZ=              0.0000 YYXZ=              0.0000 ZZXY=             -0.0000
 N-N=           9.164377 E-N=        -198.998599  KE=          76.013539
 Symmetry A1   KE=          67.808875
 Symmetry A2   KE=           0.000000
 Symmetry B1   KE=           4.515333
 Symmetry B2   KE=           3.689331
 No NMR shielding tensors so no spin-rotation constants.
 Leave Link  601 at Wed Sep  3 18:44:33 2025, MaxMem= 12348030976 cpu:               3.8 elap:               0.1
 (Enter /home/hhratchian/gaussian/gdv-20250101-j30+/gdv/l801.exe)
 DoSCS=F DFT=T ScalE2(SS,OS)=  1.000000  1.000000
 Range of M.O.s used for correlation:     1    92
 NBasis=    92 NAE=     5 NBE=     5 NFC=     0 NFV=     0
 NROrb=     92 NOA=     5 NOB=     5 NVA=    87 NVB=    87

 **** Warning!!: The largest alpha MO coefficient is  0.15863247D+02

 Leave Link  801 at Wed Sep  3 18:44:33 2025, MaxMem= 12348030976 cpu:               0.2 elap:               0.0
 (Enter /home/hhratchian/gaussian/gdv-20250101-j30+/gdv/l914.exe)
 RHF ground state
 Doing stability rather than CIS.
 DoSCS=F DFT=T ScalE2(SS,OS)=  1.000000  1.000000
   ScalD2(USS,UOS,TSS,TOS,w)=  1.000000  1.000000  1.000000  1.000000  1.000000
 Keep R1 and R2 ints in memory in symmetry-blocked form, NReq=133910540.
 FoFCou: FMM=F IPFlag=           0 FMFlag=           0 FMFlg1=           0
         NFxFlg=           0 DoJE=F BraDBF=F KetDBF=F FulRan=T
         wScrn=  0.000000 ICntrl=       600 IOpCl=  0 I1Cent=           0 NGrid=           0
         NMat0=    1 NMatS0=   4278 NMatT0=    0 NMatD0=    1 NMtDS0=    0 NMtDT0=    0
 Petite list used in FoFCou.
 MDV= 12348030976 DFT=T IDoStb=1 Mixed=T DoRPA=F DoScal=F NonHer=F
 Making orbital integer symmetry assigments:
 Orbital symmetries:
       Occupied  (A1) (A1) (B2) (A1) (B1)
       Virtual   (A1) (B2) (A1) (B1) (A1) (B2) (B2) (A1) (A2) (B1)
                 (A1) (B2) (A1) (B2) (B2) (A1) (A1) (A2) (B1) (A1)
                 (B1) (A1) (B1) (B2) (A2) (B2) (A1) (A1) (B2) (B1)
                 (B2) (A1) (A2) (B2) (A2) (A1) (B1) (A1) (B2) (B2)
                 (A1) (B1) (A2) (A1) (A1) (B1) (B2) (A1) (B2) (B1)
                 (A1) (B2) (A2) (B2) (A1) (B1) (A2) (A1) (B2) (B1)
                 (A2) (B1) (A1) (B2) (A1) (B2) (B2) (A2) (B2) (A1)
                 (B1) (A1) (A1) (B2) (B1) (A1) (B1) (B1) (A1) (A2)
                 (A2) (B2) (A1) (A1) (B2) (B2) (A1)
 The electronic state is 1-A1.
    24 initial guesses have been made.
 Convergence on wavefunction:    0.001000000000000
 Davidson Disk Diagonalization:  ConvIn= 1.00D-03 SkipCon=T Conv= 1.00D-03.
 Max sub-space:  1740 initial roots:    24 roots to seek:     1 dimension of matrix:          870
 Iteration     1 Dimension    24 NMult     0 NNew     24
 CISAX will form    24 AO SS matrices at one time.
 NMat=    24 NSing=    12 JSym2X=-1.
 New state      1 was old state      2
 Excitation Energies [eV] at current iteration:
 Root      1 :     6.768745440576850
 Root      2 :     7.357934399336060
 Root      3 :     8.619674543643123
 Root      4 :     8.757879123110659
 Root      5 :     8.907539975474251
 Root      6 :     9.555159983966981
 Root      7 :    10.031393941107504
 Root      8 :    10.132100967982744
 Root      9 :    10.221179442811350
 Root     10 :    10.669706473172161
 Root     11 :    11.010099426950580
 Root     12 :    11.044840711811378
 Root     13 :    11.048025189174629
 Root     14 :    11.100032431981798
 Root     15 :    11.270800214456969
 Root     16 :    11.463652562459858
 Root     17 :    11.997816738218351
 Root     18 :    12.035023732250082
 Root     19 :    12.083060683473862
 Root     20 :    12.271287937195565
 Root     21 :    12.362582334805174
 Root     22 :    12.365792686088607
 Root     23 :    12.489925621930830
 Root     24 :    14.671763372331451
 Iteration     2 Dimension    48 NMult    24 NNew     24
 CISAX will form    24 AO SS matrices at one time.
 NMat=    24 NSing=    12 JSym2X=-1.
 Root      1 not converged, maximum delta is    0.105442345294407
 Excitation Energies [eV] at current iteration:
 Root      1 :     6.474294872946426   Change is   -0.294450567630423
 Root      2 :     7.302943619191979   Change is   -0.054990780144082
 Root      3 :     8.350642384561263   Change is   -0.556897590912987
 Root      4 :     8.377551486856589   Change is   -0.242123056786535
 Root      5 :     8.712803328894145   Change is   -0.045075794216513
 Root      6 :     9.390365958170671   Change is   -0.164794025796311
 Root      7 :     9.526435207651279   Change is   -0.504958733456226
 Root      8 :     9.827877365290817   Change is   -0.304223602691926
 Root      9 :    10.089395075440068   Change is   -0.131784367371280
 Root     10 :    10.325125174935559   Change is   -0.719715536875819
 Root     11 :    10.452424764491530   Change is   -0.217281708680629
 Root     12 :    10.647366893601470   Change is   -0.400658295573160
 Root     13 :    10.857483296907777   Change is   -0.242549135074023
 Root     14 :    10.893082880495017   Change is   -0.570569681964840
 Root     15 :    10.908231920517331   Change is   -0.101867506433250
 Root     16 :    11.100675646439624   Change is   -0.170124568017345
 Root     17 :    11.440060637759483   Change is   -0.643000045714380
 Root     18 :    11.910869147212493   Change is   -0.124154585037589
 Root     19 :    11.913721069087659   Change is   -0.084095669130692
 Root     20 :    12.055518433002355   Change is   -0.215769504193209
 Root     21 :    12.239426057018120   Change is   -0.126366629070487
 Root     22 :    12.295669017766416   Change is   -0.066913317038757
 Root     23 :    12.408017951369686   Change is   -0.081907670561145
 Root     24 :    12.616542449019853   Change is   -2.055220923311598
 Iteration     3 Dimension    54 NMult    48 NNew      6
 CISAX will form     6 AO SS matrices at one time.
 NMat=     6 NSing=     3 JSym2X=-1.
 Root      1 not converged, maximum delta is    0.002953308565059
 Excitation Energies [eV] at current iteration:
 Root      1 :     6.472763485972773   Change is   -0.001531386973653
 Root      2 :     7.301835045039653   Change is   -0.001108574152325
 Root      3 :     8.314059292246872   Change is   -0.036583092314391
 Root      4 :     8.375252747480500   Change is   -0.002298739376088
 Root      5 :     8.712299289649019   Change is   -0.000504039245126
 Root      6 :     9.360738701109748   Change is   -0.029627257060922
 Iteration     4 Dimension    60 NMult    54 NNew      6
 CISAX will form     6 AO SS matrices at one time.
 NMat=     6 NSing=     3 JSym2X=-1.
 Root      1 has converged.
 Excitation Energies [eV] at current iteration:
 Root      1 :     6.472748618668615   Change is   -0.000014867304158
 Root      2 :     7.301824565792733   Change is   -0.000010479246919
 Root      3 :     8.310184940338099   Change is   -0.003874351908773
 Root      4 :     8.375223370981566   Change is   -0.000029376498934
 Root      5 :     8.712294235827141   Change is   -0.000005053821878
 Root      6 :     9.357903418063017   Change is   -0.002835283046730
 Convergence achieved on expansion vectors.
 1PDM for each excited state written to RWF  633
 Ground to excited state transition densities written to RWF  633

 ***********************************************************************
 Stability analysis using <AA,BB:AA,BB> singles matrix:
 ***********************************************************************

 Eigenvectors of the stability matrix:
 
 Eigenvector   1:      Triplet-B1   Eigenvalue= 0.2378691  <S**2>=2.000
       5 ->  6         0.63112
       5 ->  8        -0.24574
       5 -> 10        -0.16429
       5 -> 18         0.10445
 The wavefunction is stable under the perturbations considered.
 Leave Link  914 at Wed Sep  3 18:44:39 2025, MaxMem= 12348030976 cpu:             299.2 elap:               5.6
 (Enter /home/hhratchian/gaussian/gdv-20250101-j30+/gdv/l508.exe)
 The wavefunction is already stable.
 Leave Link  508 at Wed Sep  3 18:44:39 2025, MaxMem= 12348030976 cpu:               0.1 elap:               0.0
 (Enter /home/hhratchian/gaussian/gdv-20250101-j30+/gdv/l601.exe)
 Copying SCF densities to generalized density rwf, IOpCl= 0 IROHF=0.
 
 **********************************************************************
 
               Population analysis using the SCF Density.
 
 **********************************************************************
 
 Orbital symmetries:
       Occupied  (A1) (A1) (B2) (A1) (B1)
       Virtual   (A1) (B2) (A1) (B1) (A1) (B2) (B2) (A1) (A2) (B1)
                 (A1) (B2) (A1) (B2) (B2) (A1) (A1) (A2) (B1) (A1)
                 (B1) (A1) (B1) (B2) (A2) (B2) (A1) (A1) (B2) (B1)
                 (B2) (A1) (A2) (B2) (A2) (A1) (B1) (A1) (B2) (B2)
                 (A1) (B1) (A2) (A1) (A1) (B1) (B2) (A1) (B2) (B1)
                 (A1) (B2) (A2) (B2) (A1) (B1) (A2) (A1) (B2) (B1)
                 (A2) (B1) (A1) (B2) (A1) (B2) (B2) (A2) (B2) (A1)
                 (B1) (A1) (A1) (B2) (B1) (A1) (B1) (B1) (A1) (A2)
                 (A2) (B2) (A1) (A1) (B2) (B2) (A1)
 The electronic state is 1-A1.
 Alpha  occ. eigenvalues --      -19.21104      -1.09972      -0.60976      -0.46613      -0.39279
 Alpha virt. eigenvalues --        0.00119       0.03383       0.09945       0.12299       0.13049
 Alpha virt. eigenvalues --        0.14387       0.17995       0.20041       0.22148       0.25251
 Alpha virt. eigenvalues --        0.25820       0.33168       0.36555       0.38705       0.51357
 Alpha virt. eigenvalues --        0.56606       0.61749       0.63600       0.63932       0.73099
 Alpha virt. eigenvalues --        0.75641       0.77897       0.81360       0.81483       0.83439
 Alpha virt. eigenvalues --        0.84876       0.86767       0.92380       0.93273       0.96590
 Alpha virt. eigenvalues --        1.02876       1.08463       1.09103       1.15308       1.38242
 Alpha virt. eigenvalues --        1.41608       1.44747       1.63145       1.66796       1.80582
 Alpha virt. eigenvalues --        1.92536       2.05916       2.11621       2.12722       2.19456
 Alpha virt. eigenvalues --        2.23030       2.23962       2.27798       2.48332       2.49870
 Alpha virt. eigenvalues --        2.55019       2.64026       2.68002       3.39091       3.49173
 Alpha virt. eigenvalues --        3.72358       3.78480       3.95333       4.01361       4.07210
 Alpha virt. eigenvalues --        4.14161       4.15483       4.15823       4.22585       4.37341
 Alpha virt. eigenvalues --        4.51775       4.87920       4.88112       4.97581       5.00158
 Alpha virt. eigenvalues --        5.18881       5.36202       5.79155       6.13296       6.32128
 Alpha virt. eigenvalues --        6.49557       6.72744       6.81439       6.86477       6.90147
 Alpha virt. eigenvalues --        6.92162       6.92542       7.11251       7.48167       7.48987
 Alpha virt. eigenvalues --        8.34206      15.02828
          Condensed to atoms (all electrons):
               1          2          3
     1  O    7.824917   0.260182   0.260182
     2  H    0.260182   0.565794   0.001384
     3  H    0.260182   0.001384   0.565794
 Mulliken charges:
               1
     1  O   -0.345281
     2  H    0.172640
     3  H    0.172640
 Sum of Mulliken charges=  -0.00000
 Mulliken charges with hydrogens summed into heavy atoms:
               1
     1  O   -0.000000
 Electronic spatial extent (au):  <R**2>=             20.0715
 Charge=             -0.0000 electrons
 Dipole moment (field-independent basis, Debye):
    X=             -0.0000    Y=             -0.0000    Z=             -1.8785  Tot=              1.8785
 Quadrupole moment (field-independent basis, Debye-Ang):
   XX=             -7.8192   YY=             -4.4463   ZZ=             -6.5241
   XY=              0.0000   XZ=              0.0000   YZ=             -0.0000
 Traceless Quadrupole moment (field-independent basis, Debye-Ang):
   XX=             -1.5560   YY=              1.8169   ZZ=             -0.2609
   XY=              0.0000   XZ=              0.0000   YZ=             -0.0000
 Octapole moment (field-independent basis, Debye-Ang**2):
  XXX=              0.0000  YYY=             -0.0000  ZZZ=             -0.9884  XYY=             -0.0000
  XXY=             -0.0000  XXZ=             -0.2097  XZZ=              0.0000  YZZ=              0.0000
  YYZ=             -1.3261  XYZ=             -0.0000
 Hexadecapole moment (field-independent basis, Debye-Ang**3):
 XXXX=             -7.8178 YYYY=             -6.7353 ZZZZ=             -8.1628 XXXY=             -0.0000
 XXXZ=             -0.0000 YYYX=             -0.0000 YYYZ=             -0.0000 ZZZX=             -0.0000
 ZZZY=             -0.0000 XXYY=             -2.7669 XXZZ=             -2.7094 YYZZ=             -2.1861
 XXYZ=              0.0000 YYXZ=              0.0000 ZZXY=             -0.0000
 N-N=           9.164377 E-N=        -198.998599  KE=          76.013539
 Symmetry A1   KE=          67.808875
 Symmetry A2   KE=           0.000000
 Symmetry B1   KE=           4.515333
 Symmetry B2   KE=           3.689331
 No NMR shielding tensors so no spin-rotation constants.
 Leave Link  601 at Wed Sep  3 18:44:39 2025, MaxMem= 12348030976 cpu:               4.0 elap:               0.1
 (Enter /home/hhratchian/gaussian/gdv-20250101-j30+/gdv/local/l9999.exe)
 Unable to Open any file for archive entry.
 1\1\GINC-GNODE009\Stability\RCAM-B3LYP\Gen\H2O1\AABOUTAKA\03-Sep-2025\
 0\\#p CAM-B3LYP stable=opt guess=read chkbasis geom=allcheck int=super
 finegrid\\H2O — CAM-B3LYP/genecp q=0 m=1 [1/3: Stability]\\0,1\O,0,0
 .,0.,-0.0512641208\H,0,0.7642837085,0.,0.5299160604\H,0,-0.7642837085,
 0.,0.5299160604\\Version=ES64L-GDVRevJ.30+\State=1-A1\HF=-76.4380679\R
 MSD=1.391e-10\Dipole=0.,0.,0.7390563\Quadrupole=1.3508122,-1.1568438,-
 0.1939683,0.,0.,0.\PG=C02V [C2(O1),SGV(H2)]\\@
 The archive entry for this job was punched.


 KNOWLEDGE IS OF TWO KINDS:  WE KNOW A SUBJECT OURSELVES OR WE KNOW 
 WHERE WE CAN FIND INFORMATION UPON IT.

                                    -- SAMUEL JOHNSON
 Job cpu time:       0 days  0 hours  5 minutes 29.5 seconds.
 Elapsed time:       0 days  0 hours  0 minutes  7.1 seconds.
 File lengths (MBytes):  RWF=    100 Int=      0 D2E=      0 Chk=     74 Scr=      2
 Normal termination of Gaussian DV at Wed Sep  3 18:44:39 2025.
