 Set GAUSS_MDEF to "92GB".
 Set GAUSS_PDEF to "56".
 Entering Gaussian System, Link 0=gdv
 Initial command:
 /home/hhratchian/gaussian/gdv-20250101-j30+/gdv/local/l1.exe "/scratch/aaboutaka/1590341/Gau-3802138.inp" -scrdir="/scratch/aaboutaka/1590341/"
 Default is to use a total of  56 processors:
                               56 via shared-memory
                                1 via Linda
 Entering Link 1 = /home/hhratchian/gaussian/gdv-20250101-j30+/gdv/local/l1.exe PID=   3802139.
  
 Copyright (c) 1988-2024, Gaussian, Inc.  All Rights Reserved.
  
 This is the private, development version of
 the Gaussian(R) DV system of programs. It is based on
 the Gaussian(R) 16 system (copyright 2016, Gaussian, Inc.),
 the Gaussian(R) 09 system (copyright 2009, Gaussian, Inc.),
 the Gaussian(R) 03 system (copyright 2003, Gaussian, Inc.),
 the Gaussian(R) 98 system (copyright 1998, Gaussian, Inc.),
 the Gaussian(R) 94 system (copyright 1995, Gaussian, Inc.),
 the Gaussian 92(TM) system (copyright 1992, Gaussian, Inc.),
 the Gaussian 90(TM) system (copyright 1990, Gaussian, Inc.),
 the Gaussian 88(TM) system (copyright 1988, Gaussian, Inc.),
 the Gaussian 86(TM) system (copyright 1986, Carnegie Mellon
 University), and the Gaussian 82(TM) system (copyright 1983,
 Carnegie Mellon University). Gaussian is a federally registered
 trademark of Gaussian, Inc.
  
 This software contains proprietary and confidential information,
 including trade secrets, belonging to Gaussian, Inc.
  
 This software is provided under written license and may be
 used, copied, transmitted, or stored only in accord with that
 written license.
  
 The following legend is applicable only to US Government
 contracts under FAR:
  
                    RESTRICTED RIGHTS LEGEND
  
 Use, reproduction and disclosure by the US Government is
 subject to restrictions as set forth in subparagraphs (a)
 and (c) of the Commercial Computer Software - Restricted
 Rights clause in FAR 52.227-19.
  
 Gaussian, Inc.
 340 Quinnipiac St., Bldg. 40, Wallingford CT 06492
  
  
 ---------------------------------------------------------------
 Warning -- This program may not be used in any manner that
 competes with the business of Gaussian, Inc. or will provide
 assistance to any competitor of Gaussian, Inc.  The licensee
 of this program is prohibited from giving any competitor of
 Gaussian, Inc. access to this program.  By using this program,
 the user acknowledges that Gaussian, Inc. is engaged in the
 business of creating and licensing software in the field of
 computational chemistry and represents and warrants to the
 licensee that it is not a competitor of Gaussian, Inc. and that
 it will not use this program in any manner prohibited above.
 ---------------------------------------------------------------
  

 Cite this work as:
 Gaussian Development Version, Revision J.30+,
 M. J. Frisch, G. W. Trucks, G. Scalmani, J. R. Cheeseman, X. Li, 
 J. Bloino, B. G. Janesko, A. V. Marenich, J. Zheng, F. Lipparini, 
 A. Jenkins, A. Liu, H. Liu, H. B. Schlegel, G. E. Scuseria, 
 M. A. Robb, V. Barone, G. A. Petersson, H. Nakatsuji, B. Mennucci, 
 C. Adamo, N. Rega, M. Caricato, H. P. Hratchian, J. V. Ortiz, 
 F. Pawlowski, A. F. Izmaylov, H. Hu, C. Liao, J. L. Sonnenberg, 
 D. Williams-Young, F. Ding, R. Gomperts, F. Egidi, J. Goings, 
 B. Peng, A. Petrone, T. Henderson, D. Ranasinghe, V. G. Zakrzewski, 
 J. Gao, G. Zheng, W. Liang, M. Hada, M. Ehara, K. Toyota, R. Fukuda, 
 J. Hasegawa, M. Ishida, T. Nakajima, Y. Honda, O. Kitao, H. Nakai, 
 T. Vreven, K. Throssell, J. A. Montgomery, Jr., J. E. Peralta, 
 F. Ogliaro, M. J. Bearpark, J. J. Heyd, E. N. Brothers, K. N. Kudin, 
 V. N. Staroverov, T. A. Keith, R. Kobayashi, J. Normand, 
 K. Raghavachari, A. P. Rendell, J. C. Burant, S. S. Iyengar, 
 M. Cossi, J. M. Millam, M. Klene, R. Cammi, R. L. Martin, O. Farkas, 
 J. B. Foresman, and D. J. Fox, Gaussian, Inc., Wallingford CT, 2024.
 
 *******************************************
 Gaussian DV:  ES64L-GDVRevJ.30+ 18-Dec-2024
                  3-Sep-2025 
 *******************************************
 %chk=H2O_B3LYP_STO-3G_q0_m1_stab.chk
 -------------------------------------------------------------------
 #p B3LYP/STO-3G stable=opt scf=novaracc guess=mix int=superfinegrid
 -------------------------------------------------------------------
 1/37=210000000,38=1,172=1/1;
 2/12=2/2;
 3/6=3,11=2,25=1,30=1,74=-5,75=-7/1,2,3;
 4/13=-1/1;
 5/5=2,38=1/2;
 6/7=2,8=2,9=2,10=2,28=1/1;
 8/6=1,10=90,11=11/1;
 9/8=-3,42=1,46=1/14;
 5/5=2,8=3,17=40,38=1/8(-2);
 6/7=2,8=2,9=2,10=2,28=1/1;
 99/5=1,9=1/99;
 Leave Link    1 at Wed Sep  3 18:22:32 2025, MaxMem=           0 cpu:               1.4 elap:               0.1
 (Enter /home/hhratchian/gaussian/gdv-20250101-j30+/gdv/local/l101.exe)
 
  Hrant - IAPOps =                         0
  Hrant - IAPOp1 =                         0
  Hrant - IAPOp2 =                         0
  Hrant - DoAP   =   F
 
 ---------------------------------------------
 H2O — B3LYP/STO-3G q=0 m=1 [1/3: Stability]
 ---------------------------------------------
 Symbolic Z-matrix:
 Charge =     0 Multiplicity =     1
 O                     0.        0.        0. 
 H                     0.7586    0.        0.50428 
 H                    -0.7586    0.        0.50428 
 
 ITRead=  0  0  0
 MicOpt= -1 -1 -1
 NAtoms=      3 NQM=        3 NQMF=       0 NMMI=      0 NMMIF=      0
                NMic=       0 NMicF=      0.
                    Isotopes and Nuclear Properties:
 (Nuclear quadrupole moments (NQMom) in fm**2, nuclear magnetic moments (NMagM)
  in nuclear magnetons)

  Atom         1           2           3
 IAtWgt=          16           1           1
 AtmWgt=  15.9949146   1.0078250   1.0078250
 NucSpn=           0           1           1
 AtZEff=   -0.000000   -0.000000   -0.000000
 NQMom=    0.0000000   0.0000000   0.0000000
 NMagM=    0.0000000   2.7928460   2.7928460
 AtZNuc=   8.0000000   1.0000000   1.0000000
 Leave Link  101 at Wed Sep  3 18:22:32 2025, MaxMem= 12348030976 cpu:               0.3 elap:               0.1
 (Enter /home/hhratchian/gaussian/gdv-20250101-j30+/gdv/l202.exe)
                          Input orientation:                          
 ---------------------------------------------------------------------
 Center     Atomic      Atomic             Coordinates (Angstroms)
 Number     Number       Type             X           Y           Z
 ---------------------------------------------------------------------
      1          8           0        0.000000    0.000000    0.000000
      2          1           0        0.758602    0.000000    0.504284
      3          1           0       -0.758602   -0.000000    0.504284
 ---------------------------------------------------------------------
                    Distance matrix (angstroms):
                    1          2          3
     1  O    0.000000
     2  H    0.910922   0.000000
     3  H    0.910922   1.517204   0.000000
 Stoichiometry    H2O
 Framework group  C2V[C2(O),SGV(H2)]
 Deg. of freedom     2
 Full point group                 C2V     NOp   4
 Largest Abelian subgroup         C2V     NOp   4
 Largest concise Abelian subgroup C2      NOp   2
                         Standard orientation:                         
 ---------------------------------------------------------------------
 Center     Atomic      Atomic             Coordinates (Angstroms)
 Number     Number       Type             X           Y           Z
 ---------------------------------------------------------------------
      1          8           0        0.000000    0.000000    0.100857
      2          1           0        0.000000    0.758602   -0.403427
      3          1           0       -0.000000   -0.758602   -0.403427
 ---------------------------------------------------------------------
 Rotational constants (GHZ):        1110.1894251         435.6864908         312.8935057
 Leave Link  202 at Wed Sep  3 18:22:32 2025, MaxMem= 12348030976 cpu:               0.3 elap:               0.0
 (Enter /home/hhratchian/gaussian/gdv-20250101-j30+/gdv/local/l301.exe)
 Standard basis: STO-3G (5D, 7F)
 Ernie: Thresh=  0.10000D-02 Tol=  0.10000D-05 Strict=F.
 There are     4 symmetry adapted cartesian basis functions of A1  symmetry.
 There are     0 symmetry adapted cartesian basis functions of A2  symmetry.
 There are     1 symmetry adapted cartesian basis functions of B1  symmetry.
 There are     2 symmetry adapted cartesian basis functions of B2  symmetry.
 There are     4 symmetry adapted basis functions of A1  symmetry.
 There are     0 symmetry adapted basis functions of A2  symmetry.
 There are     1 symmetry adapted basis functions of B1  symmetry.
 There are     2 symmetry adapted basis functions of B2  symmetry.
     7 basis functions,    21 primitive gaussians,     7 cartesian basis functions
     5 alpha electrons        5 beta electrons
       nuclear repulsion energy         9.6435792538 Hartrees.
 IExCor=      4002 DFT=T Ex+Corr=B3LYP ScaHFX=  0.200000
 ScaDFX=  0.800000  0.720000  1.000000  0.810000  1.000000  0.000000
 ScaDFX=  0.000000  0.000000  0.000000  0.000000  0.000000  0.000000
 Grid=SuperFine IRanWt=     -1 IRanGd=            0 ICorTp=0 IEDCtl=  2004
 NAtoms=    3 NActive=    3 NUniq=    2 SFac= 2.25D+00 NAtFMM=   60 NAOKFM=F Big=F
 Integral buffers will be    131072 words long.
 Raffenetti 2 integral format.
 Two-electron integral symmetry is turned on.
 Leave Link  301 at Wed Sep  3 18:22:32 2025, MaxMem= 12348030976 cpu:               0.2 elap:               0.1
 (Enter /home/hhratchian/gaussian/gdv-20250101-j30+/gdv/l302.exe)
 NPDir=0 NMtPBC=     1 NCelOv=     1 NCel=       1 NClECP=     1 NCelD=      1
         NCelK=      1 NCelE2=     1 NClLst=     1 CellRange=     0.0.
 One-electron integrals computed using PRISM.
 One-electron integral symmetry used in STVInt
 NBasis=     7 RedAO= T EigKep=  3.13D-01  NBF=     4     0     1     2
 NBsUse=     7 1.00D-06 EigRej= -1.00D+00 NBFU=     4     0     1     2
 Precomputing XC quadrature grid using
 IXCGrd=   9 Grid=SuperFine IRanWt=          -1 IRanGd=           0 AccXCQ= 0.00D+00.
 Generated NRdTot=       0 NPtTot=      186050 NUsed=           0 NTot=          64
 NSgBfM=     7     7     7     7     7 MxSgAt=     3 MxSgA2=     3 SizInc=   0.000
 NMBTot=     1271 MaxBatPerAtom=      123 MaxMicBPerAtom=      427 NBfPt=             1123541.
 Leave Link  302 at Wed Sep  3 18:22:32 2025, MaxMem= 12348030976 cpu:               2.5 elap:               0.1
 (Enter /home/hhratchian/gaussian/gdv-20250101-j30+/gdv/l303.exe)
 DipDrv:  MaxL=1.
 Leave Link  303 at Wed Sep  3 18:22:32 2025, MaxMem= 12348030976 cpu:               0.2 elap:               0.0
 (Enter /home/hhratchian/gaussian/gdv-20250101-j30+/gdv/l401.exe)
 ExpMin= 1.69D-01 ExpMax= 1.31D+02 ExpMxC= 1.31D+02 IAcc=3 Grid=SuperFine AccDes= 0.00D+00
 Harris functional with IExCor= 4002 and Grid=SuperFine diagonalized for initial guess.
 HarFok:  IExCor=    4002 AccDes= 0.00D+00 Grid=SuperFine IDoV= 1 UseB2=F ITyADJ=14 ICtDFT=  3500011
 FoFCou: FMM=F IPFlag=           0 FMFlag=      100000 FMFlg1=           0
         NFxFlg=           0 DoJE=T BraDBF=F KetDBF=T FulRan=T
         wScrn=  0.000000 ICntrl=       500 IOpCl=  0 I1Cent=   200000004 NGrid=           0
         NMat0=    1 NMatS0=      1 NMatT0=    0 NMatD0=    1 NMtDS0=    0 NMtDT0=    0
 Petite list used in FoFCou.
 Harris En= -75.3549354603013    
 JPrj=0 DoOrth=F DoCkMO=T.
 Mixing orbitals, IMix= 1 IMixAn=  0 NRI=1 NE=    5 Coef=  7.07106781D-01  7.07106781D-01
 Initial guess orbital symmetries:
       Occupied  (A1) (A1) (B2) (A1) (?A)
       Virtual   (?A) (B2)
 Leave Link  401 at Wed Sep  3 18:22:32 2025, MaxMem= 12348030976 cpu:               3.7 elap:               0.1
 (Enter /home/hhratchian/gaussian/gdv-20250101-j30+/gdv/local/l502.exe)
 Keep R1 ints in memory in symmetry-blocked form, NReq=47923544.
 FoFCou: FMM=F IPFlag=           0 FMFlag=           0 FMFlg1=           0
         NFxFlg=           0 DoJE=F BraDBF=F KetDBF=F FulRan=T
         wScrn=  0.000000 ICntrl=       600 IOpCl=  0 I1Cent=           0 NGrid=           0
         NMat0=    1 NMatS0=     28 NMatT0=    0 NMatD0=    1 NMtDS0=    0 NMtDT0=    0
 Petite list used in FoFCou.
 Closed shell SCF:
 Using DIIS extrapolation, IDIIS=  1040.
 NGot= 12348030976 LenX= 12348027978 LenY= 12348027096
 Requested convergence on RMS density matrix=1.00D-08 within 128 cycles.
 Requested convergence on MAX density matrix=1.00D-06.
 Requested convergence on             energy=1.00D-06.
 No special actions if energy rises.
 An orbital has undefined symmetry, so N**3 symmetry is turned off.
 
  Hrant - CycOpn.
 

 Cycle   1  Pass 1  IDiag  1:
 Density matrix breaks symmetry, PCut= 1.00D-04
 Density matrix has no symmetry -- integrals replicated.
 E= -74.7558084030688    
 DIIS: error= 1.22D-01 at cycle   1 NSaved=   1.
 NSaved= 1 IEnMin= 1 EnMin= -74.7558084030688     IErMin= 1 ErrMin= 1.22D-01
 ErrMax= 1.22D-01  0.00D+00 EMaxC= 1.00D-01 BMatC= 3.93D-02 BMatP= 3.93D-02
 Rises=F IDIUse=3 WtCom= 0.00D+00 WtEn= 1.00D+00
 Coeff-Com:  0.100D+01
 Coeff-En:   0.100D+01
 Coeff:      0.100D+01
 Gap=     0.025 Goal=   None    Shift=    0.000
 GapD=    0.025 DampG=0.250 DampE=0.250 DampFc=0.2500 IDamp=-1.
 Damping current iteration by 2.50D-01
 RMSDP=2.73D-01 MaxDP=4.99D-01              OVMax= 0.00D+00

 Cycle   2  Pass 1  IDiag  1:
 Density matrix breaks symmetry, PCut= 1.00D-04
 Density matrix has no symmetry -- integrals replicated.
 E= -74.8864914328028     Delta-E=       -0.130683029734 Rises=F Damp=T AM=F Ri=F Fa=F
 DIIS: error= 9.01D-02 at cycle   2 NSaved=   2.
 NSaved= 2 IEnMin= 2 EnMin= -74.8864914328028     IErMin= 2 ErrMin= 9.01D-02
 ErrMax= 9.01D-02  0.00D+00 EMaxC= 1.00D-01 BMatC= 2.14D-02 BMatP= 3.93D-02
 Rises=F IDIUse=3 WtCom= 9.88D-02 WtEn= 9.01D-01
 Coeff-Com: -0.201D+01 0.301D+01
 Coeff-En:   0.000D+00 0.100D+01
 Coeff:     -0.199D+00 0.120D+01
 Gap=     0.520 Goal=   None    Shift=    0.000
 RMSDP=2.08D-01 MaxDP=3.75D-01 DE=-1.31D-01 OVMax= 0.00D+00

 Cycle   3  Pass 1  IDiag  1:
 Density matrix breaks symmetry, PCut= 1.00D-04
 Density matrix has no symmetry -- integrals replicated.
 E= -75.2818441256161     Delta-E=       -0.395352692813 Rises=F Damp=F AM=F Ri=F Fa=F
 DIIS: error= 3.10D-02 at cycle   3 NSaved=   3.
 NSaved= 3 IEnMin= 3 EnMin= -75.2818441256161     IErMin= 3 ErrMin= 3.10D-02
 ErrMax= 3.10D-02  0.00D+00 EMaxC= 1.00D-01 BMatC= 2.82D-03 BMatP= 2.14D-02
 Rises=F IDIUse=3 WtCom= 6.90D-01 WtEn= 3.10D-01
 Coeff-Com:  0.201D+01-0.280D+01 0.179D+01
 Coeff-En:   0.000D+00 0.000D+00 0.100D+01
 Coeff:      0.139D+01-0.193D+01 0.155D+01
 Gap=     0.511 Goal=   None    Shift=    0.000
 RMSDP=2.23D-02 MaxDP=7.31D-02 DE=-3.95D-01 OVMax= 0.00D+00

 Cycle   4  Pass 1  IDiag  1:
 Density matrix breaks symmetry, PCut= 1.00D-04
 Density matrix has no symmetry -- integrals replicated.
 E= -75.2876648531544     Delta-E=       -0.005820727538 Rises=F Damp=F AM=F Ri=F Fa=F
 DIIS: error= 1.33D-02 at cycle   4 NSaved=   4.
 NSaved= 4 IEnMin= 4 EnMin= -75.2876648531544     IErMin= 4 ErrMin= 1.33D-02
 ErrMax= 1.33D-02  0.00D+00 EMaxC= 1.00D-01 BMatC= 6.77D-04 BMatP= 2.82D-03
 Rises=F IDIUse=3 WtCom= 8.67D-01 WtEn= 1.33D-01
 Coeff-Com:  0.341D-01-0.656D-01 0.360D+00 0.672D+00
 Coeff-En:   0.000D+00 0.000D+00 0.000D+00 0.100D+01
 Coeff:      0.295D-01-0.568D-01 0.312D+00 0.716D+00
 Gap=     0.530 Goal=   None    Shift=    0.000
 RMSDP=7.17D-03 MaxDP=2.22D-02 DE=-5.82D-03 OVMax= 0.00D+00

 Cycle   5  Pass 1  IDiag  1:
 E= -75.2893371144420     Delta-E=       -0.001672261288 Rises=F Damp=F AM=F Ri=F Fa=F
 DIIS: error= 4.83D-04 at cycle   5 NSaved=   5.
 NSaved= 5 IEnMin= 5 EnMin= -75.2893371144420     IErMin= 5 ErrMin= 4.83D-04
 ErrMax= 4.83D-04  0.00D+00 EMaxC= 1.00D-01 BMatC= 8.78D-07 BMatP= 6.77D-04
 Rises=F IDIUse=3 WtCom= 9.99D-01 WtEn= 1.06D-03
 Coeff-Com:  0.421D-02-0.712D-02 0.254D-01 0.756D-01 0.902D+00
 Coeff-En:   0.000D+00 0.000D+00 0.000D+00 0.000D+00 0.100D+01
 Coeff:      0.421D-02-0.712D-02 0.254D-01 0.755D-01 0.902D+00
 Gap=     0.529 Goal=   None    Shift=    0.000
 RMSDP=2.55D-04 MaxDP=7.54D-04 DE=-1.67D-03 OVMax= 0.00D+00

 Cycle   6  Pass 1  IDiag  1:
 E= -75.2893391542602     Delta-E=       -0.000002039818 Rises=F Damp=F AM=F Ri=F Fa=F
 DIIS: error= 5.83D-05 at cycle   6 NSaved=   6.
 NSaved= 6 IEnMin= 6 EnMin= -75.2893391542602     IErMin= 6 ErrMin= 5.83D-05
 ErrMax= 5.83D-05  0.00D+00 EMaxC= 1.00D-01 BMatC= 1.09D-08 BMatP= 8.78D-07
 Rises=F IDIUse=1 WtCom= 1.00D+00 WtEn= 0.00D+00
 Coeff-Com:  0.133D-03-0.197D-03 0.997D-03-0.326D-02-0.283D-01 0.103D+01
 Coeff:      0.133D-03-0.197D-03 0.997D-03-0.326D-02-0.283D-01 0.103D+01
 Gap=     0.529 Goal=   None    Shift=    0.000
 RMSDP=3.02D-05 MaxDP=9.29D-05 DE=-2.04D-06 OVMax= 0.00D+00

 Cycle   7  Pass 1  IDiag  1:
 E= -75.2893391824221     Delta-E=       -0.000000028162 Rises=F Damp=F AM=F Ri=F Fa=F
 DIIS: error= 3.34D-07 at cycle   7 NSaved=   7.
 NSaved= 7 IEnMin= 7 EnMin= -75.2893391824221     IErMin= 7 ErrMin= 3.34D-07
 ErrMax= 3.34D-07  0.00D+00 EMaxC= 1.00D-01 BMatC= 5.85D-13 BMatP= 1.09D-08
 Rises=F IDIUse=1 WtCom= 1.00D+00 WtEn= 0.00D+00
 Coeff-Com: -0.646D-05 0.115D-04-0.133D-03 0.314D-03 0.239D-02-0.130D+00
 Coeff-Com:  0.113D+01
 Coeff:     -0.646D-05 0.115D-04-0.133D-03 0.314D-03 0.239D-02-0.130D+00
 Coeff:      0.113D+01
 Gap=     0.529 Goal=   None    Shift=    0.000
 RMSDP=5.00D-07 MaxDP=1.48D-06 DE=-2.82D-08 OVMax= 0.00D+00

 Cycle   8  Pass 1  IDiag  1:
 E= -75.2893391824243     Delta-E=       -0.000000000002 Rises=F Damp=F AM=F Ri=F Fa=F
 DIIS: error= 1.18D-07 at cycle   8 NSaved=   8.
 NSaved= 8 IEnMin= 8 EnMin= -75.2893391824243     IErMin= 8 ErrMin= 1.18D-07
 ErrMax= 1.18D-07  0.00D+00 EMaxC= 1.00D-01 BMatC= 4.34D-14 BMatP= 5.85D-13
 Rises=F IDIUse=1 WtCom= 1.00D+00 WtEn= 0.00D+00
 Coeff-Com:  0.538D-07-0.839D-07 0.127D-05-0.561D-05-0.492D-04 0.385D-02
 Coeff-Com: -0.310D-01 0.103D+01
 Coeff:      0.538D-07-0.839D-07 0.127D-05-0.561D-05-0.492D-04 0.385D-02
 Coeff:     -0.310D-01 0.103D+01
 Gap=     0.529 Goal=   None    Shift=    0.000
 RMSDP=5.88D-08 MaxDP=1.92D-07 DE=-2.22D-12 OVMax= 0.00D+00

 Cycle   9  Pass 1  IDiag  1:
 E= -75.2893391824244     Delta-E=       -0.000000000000 Rises=F Damp=F AM=F Ri=F Fa=F
 DIIS: error= 4.46D-10 at cycle   9 NSaved=   9.
 NSaved= 9 IEnMin= 9 EnMin= -75.2893391824244     IErMin= 9 ErrMin= 4.46D-10
 ErrMax= 4.46D-10  0.00D+00 EMaxC= 1.00D-01 BMatC= 6.50D-19 BMatP= 4.34D-14
 Rises=F IDIUse=1 WtCom= 1.00D+00 WtEn= 0.00D+00
 Coeff-Com:  0.934D-12-0.196D-11 0.138D-10 0.363D-10 0.476D-07-0.818D-05
 Coeff-Com:  0.979D-05-0.387D-03 0.100D+01
 Coeff:      0.934D-12-0.196D-11 0.138D-10 0.363D-10 0.476D-07-0.818D-05
 Coeff:      0.979D-05-0.387D-03 0.100D+01
 Gap=     0.529 Goal=   None    Shift=    0.000
 RMSDP=2.35D-10 MaxDP=7.11D-10 DE=-1.14D-13 OVMax= 0.00D+00

 SCF Done:  E(RB3LYP) =  -75.2893391824     A.U. after    9 cycles
            NFock=  9  Conv=0.23D-09     -V/T= 2.0079
 KE=          74.696713 PE=        -197.889038 EE=          38.259406
 Leave Link  502 at Wed Sep  3 18:22:32 2025, MaxMem= 12348030976 cpu:               6.3 elap:               0.2
 (Enter /home/hhratchian/gaussian/gdv-20250101-j30+/gdv/l601.exe)
 Copying SCF densities to generalized density rwf, IOpCl= 0 IROHF=0.
 
 **********************************************************************
 
               Population analysis using the SCF Density.
 
 **********************************************************************
 
 Orbital symmetries:
       Occupied  (A1) (A1) (B2) (A1) (B1)
       Virtual   (A1) (B2)
 The electronic state is 1-A1.
 Alpha  occ. eigenvalues --      -18.81868      -0.94796      -0.47653      -0.20500      -0.14138
 Alpha virt. eigenvalues --        0.38716       0.54563
          Condensed to atoms (all electrons):
               1          2          3
     1  O    7.876370   0.275875   0.275875
     2  H    0.275875   0.559606  -0.049542
     3  H    0.275875  -0.049542   0.559606
 Mulliken charges:
               1
     1  O   -0.428121
     2  H    0.214060
     3  H    0.214060
 Sum of Mulliken charges=  -0.00000
 Mulliken charges with hydrogens summed into heavy atoms:
               1
     1  O   -0.000000
 Electronic spatial extent (au):  <R**2>=             17.2143
 Charge=             -0.0000 electrons
 Dipole moment (field-independent basis, Debye):
    X=             -0.0000    Y=              0.0000    Z=             -1.6964  Tot=              1.6964
 Quadrupole moment (field-independent basis, Debye-Ang):
   XX=             -6.0464   YY=             -4.1323   ZZ=             -5.4925
   XY=              0.0000   XZ=              0.0000   YZ=              0.0000
 Traceless Quadrupole moment (field-independent basis, Debye-Ang):
   XX=             -0.8226   YY=              1.0914   ZZ=             -0.2688
   XY=              0.0000   XZ=              0.0000   YZ=              0.0000
 Octapole moment (field-independent basis, Debye-Ang**2):
  XXX=              0.0000  YYY=             -0.0000  ZZZ=             -0.2121  XYY=             -0.0000
  XXY=              0.0000  XXZ=             -0.0290  XZZ=              0.0000  YZZ=             -0.0000
  YYZ=             -0.5607  XYZ=             -0.0000
 Hexadecapole moment (field-independent basis, Debye-Ang**3):
 XXXX=             -3.1791 YYYY=             -6.1241 ZZZZ=             -4.3791 XXXY=             -0.0000
 XXXZ=             -0.0000 YYYX=             -0.0000 YYYZ=             -0.0000 ZZZX=             -0.0000
 ZZZY=              0.0000 XXYY=             -1.7228 XXZZ=             -1.2807 YYZZ=             -1.6204
 XXYZ=              0.0000 YYXZ=              0.0000 ZZXY=             -0.0000
 N-N=           9.643579 E-N=        -197.889038  KE=          74.696713
 Symmetry A1   KE=          66.688789
 Symmetry A2   KE=           0.000000
 Symmetry B1   KE=           5.057462
 Symmetry B2   KE=           2.950462
 No NMR shielding tensors so no spin-rotation constants.
 Leave Link  601 at Wed Sep  3 18:22:32 2025, MaxMem= 12348030976 cpu:               2.3 elap:               0.1
 (Enter /home/hhratchian/gaussian/gdv-20250101-j30+/gdv/l801.exe)
 DoSCS=F DFT=T ScalE2(SS,OS)=  1.000000  1.000000
 Range of M.O.s used for correlation:     1     7
 NBasis=     7 NAE=     5 NBE=     5 NFC=     0 NFV=     0
 NROrb=      7 NOA=     5 NOB=     5 NVA=     2 NVB=     2
 Leave Link  801 at Wed Sep  3 18:22:32 2025, MaxMem= 12348030976 cpu:               0.2 elap:               0.0
 (Enter /home/hhratchian/gaussian/gdv-20250101-j30+/gdv/l914.exe)
 RHF ground state
 Doing stability rather than CIS.
 DoSCS=F DFT=T ScalE2(SS,OS)=  1.000000  1.000000
   ScalD2(USS,UOS,TSS,TOS,w)=  1.000000  1.000000  1.000000  1.000000  1.000000
 Keep R1 and R2 ints in memory in symmetry-blocked form, NReq=53730587.
 FoFCou: FMM=F IPFlag=           0 FMFlag=           0 FMFlg1=           0
         NFxFlg=           0 DoJE=F BraDBF=F KetDBF=F FulRan=T
         wScrn=  0.000000 ICntrl=       600 IOpCl=  0 I1Cent=           0 NGrid=           0
         NMat0=    1 NMatS0=     28 NMatT0=    0 NMatD0=    1 NMtDS0=    0 NMtDT0=    0
 Petite list used in FoFCou.
 MDV= 12348030976 DFT=T IDoStb=1 Mixed=T DoRPA=F DoScal=F NonHer=F
 Making orbital integer symmetry assigments:
 Orbital symmetries:
       Occupied  (A1) (A1) (B2) (A1) (B1)
       Virtual   (A1) (B2)
    20 initial guesses have been made.
 Convergence on wavefunction:    0.001000000000000
 Davidson Disk Diagonalization:  ConvIn= 1.00D-03 SkipCon=T Conv= 1.00D-03.
 Max sub-space:    48 initial roots:    24 roots to seek:     1 dimension of matrix:           20
 *** WARNING: Number of orthogonal guesses is           20
 Iteration     1 Dimension    20 NMult     0 NNew     20
 CISAX will form    20 AO SS matrices at one time.
 NMat=    20 NSing=    10 JSym2X= 2.
 New state      1 was old state      2
 Excitation Energies [eV] at current iteration:
 Root      1 :     9.754418572341224
 Root      2 :    11.221162354256238
 Root      3 :    13.846627020178079
 Root      4 :    13.899749693056709
 Root      5 :    14.137586262545872
 Root      6 :    15.118011771389526
 Root      7 :    16.330566193970203
 Root      8 :    18.047304813010005
 Root      9 :    20.251813475577329
 Root     10 :    20.346033252946967
 Root     11 :    26.636443731706432
 Root     12 :    30.801155719880729
 Root     13 :    31.874188045426386
 Root     14 :    35.490235567572128
 Root     15 :    41.242081157505133
 Root     16 :    47.336109444748850
 Root     17 :   517.313994168170098
 Root     18 :   520.878227170177183
 Root     19 :   521.092454058830981
 Root     20 :   523.499364397199088
 Convergence achieved for final wavefunctions.
 1PDM for each excited state written to RWF  633
 Ground to excited state transition densities written to RWF  633

 ***********************************************************************
 Stability analysis using <AA,BB:AA,BB> singles matrix:
 ***********************************************************************

 Eigenvectors of the stability matrix:
 
 Eigenvector   1:      Triplet-B1   Eigenvalue= 0.3584683  <S**2>=2.000
       5 ->  6         0.70711
 
 Eigenvector   2:      Triplet-A1   Eigenvalue= 0.4123701  <S**2>=2.000
       3 ->  7        -0.11568
       4 ->  6         0.69301
 
 Eigenvector   3:      Triplet-A2   Eigenvalue= 0.5088542  <S**2>=2.000
       5 ->  7         0.70711
 
 Eigenvector   4:      Singlet-B1   Eigenvalue= 0.5108064  <S**2>=0.000
       5 ->  6         0.70711
 
 Eigenvector   5:      Triplet-B2   Eigenvalue= 0.5195467  <S**2>=2.000
       3 ->  6        -0.30216
       4 ->  7         0.63852
 
 Eigenvector   6:      Singlet-A1   Eigenvalue= 0.5555767  <S**2>=0.000
       3 ->  7         0.14901
       4 ->  6         0.68765
 The wavefunction is stable under the perturbations considered.
 Leave Link  914 at Wed Sep  3 18:22:33 2025, MaxMem= 12348030976 cpu:               4.6 elap:               0.2
 (Enter /home/hhratchian/gaussian/gdv-20250101-j30+/gdv/l508.exe)
 The wavefunction is already stable.
 Leave Link  508 at Wed Sep  3 18:22:33 2025, MaxMem= 12348030976 cpu:               0.1 elap:               0.0
 (Enter /home/hhratchian/gaussian/gdv-20250101-j30+/gdv/l601.exe)
 Copying SCF densities to generalized density rwf, IOpCl= 0 IROHF=0.
 
 **********************************************************************
 
               Population analysis using the SCF Density.
 
 **********************************************************************
 
 Orbital symmetries:
       Occupied  (A1) (A1) (B2) (A1) (B1)
       Virtual   (A1) (B2)
 The electronic state is 1-A1.
 Alpha  occ. eigenvalues --      -18.81868      -0.94796      -0.47653      -0.20500      -0.14138
 Alpha virt. eigenvalues --        0.38716       0.54563
          Condensed to atoms (all electrons):
               1          2          3
     1  O    7.876370   0.275875   0.275875
     2  H    0.275875   0.559606  -0.049542
     3  H    0.275875  -0.049542   0.559606
 Mulliken charges:
               1
     1  O   -0.428121
     2  H    0.214060
     3  H    0.214060
 Sum of Mulliken charges=  -0.00000
 Mulliken charges with hydrogens summed into heavy atoms:
               1
     1  O   -0.000000
 Electronic spatial extent (au):  <R**2>=             17.2143
 Charge=             -0.0000 electrons
 Dipole moment (field-independent basis, Debye):
    X=             -0.0000    Y=              0.0000    Z=             -1.6964  Tot=              1.6964
 Quadrupole moment (field-independent basis, Debye-Ang):
   XX=             -6.0464   YY=             -4.1323   ZZ=             -5.4925
   XY=              0.0000   XZ=              0.0000   YZ=              0.0000
 Traceless Quadrupole moment (field-independent basis, Debye-Ang):
   XX=             -0.8226   YY=              1.0914   ZZ=             -0.2688
   XY=              0.0000   XZ=              0.0000   YZ=              0.0000
 Octapole moment (field-independent basis, Debye-Ang**2):
  XXX=              0.0000  YYY=             -0.0000  ZZZ=             -0.2121  XYY=             -0.0000
  XXY=              0.0000  XXZ=             -0.0290  XZZ=              0.0000  YZZ=             -0.0000
  YYZ=             -0.5607  XYZ=             -0.0000
 Hexadecapole moment (field-independent basis, Debye-Ang**3):
 XXXX=             -3.1791 YYYY=             -6.1241 ZZZZ=             -4.3791 XXXY=             -0.0000
 XXXZ=             -0.0000 YYYX=             -0.0000 YYYZ=             -0.0000 ZZZX=             -0.0000
 ZZZY=              0.0000 XXYY=             -1.7228 XXZZ=             -1.2807 YYZZ=             -1.6204
 XXYZ=              0.0000 YYXZ=              0.0000 ZZXY=             -0.0000
 N-N=           9.643579 E-N=        -197.889038  KE=          74.696713
 Symmetry A1   KE=          66.688789
 Symmetry A2   KE=           0.000000
 Symmetry B1   KE=           5.057462
 Symmetry B2   KE=           2.950462
 No NMR shielding tensors so no spin-rotation constants.
 Leave Link  601 at Wed Sep  3 18:22:33 2025, MaxMem= 12348030976 cpu:               2.4 elap:               0.1
 (Enter /home/hhratchian/gaussian/gdv-20250101-j30+/gdv/local/l9999.exe)
 Unable to Open any file for archive entry.
 1\1\GINC-NODE030\Stability\RB3LYP\STO-3G\H2O1\AABOUTAKA\03-Sep-2025\0\
 \#p B3LYP/STO-3G stable=opt scf=novaracc guess=mix int=superfinegrid\\
 H2O — B3LYP/STO-3G q=0 m=1 [1/3: Stability]\\0,1\O,0,0.,0.,0.\H,0,0.
 758602,0.,0.504284\H,0,-0.758602,0.,0.504284\\Version=ES64L-GDVRevJ.30
 +\State=1-A1\HF=-75.2893392\RMSD=2.346e-10\Dipole=0.,0.,0.6674262\Quad
 rupole=0.8114587,-0.6116167,-0.199842,0.,0.,0.\PG=C02V [C2(O1),SGV(H2)
 ]\\@
 The archive entry for this job was punched.


 NO HUMAN INVESTIGATION CAN BECOME REAL SCIENCE
 WITHOUT GOING THROUGH MATHEMATICAL PEOPLE.
 -- LEONARDO DA VINCI, IN "PENSIERI" CA. 1492
 Job cpu time:       0 days  0 hours  0 minutes 25.2 seconds.
 Elapsed time:       0 days  0 hours  0 minutes  1.1 seconds.
 File lengths (MBytes):  RWF=     22 Int=      0 D2E=      0 Chk=      2 Scr=      2
 Normal termination of Gaussian DV at Wed Sep  3 18:22:33 2025.
 Initial command:
 /home/hhratchian/gaussian/gdv-20250101-j30+/gdv/local/l1.exe "/scratch/aaboutaka/1590341/Gau-3802138.inp" -scrdir="/scratch/aaboutaka/1590341/"
 Default is to use a total of  56 processors:
                               56 via shared-memory
                                1 via Linda
 Entering Link 1 = /home/hhratchian/gaussian/gdv-20250101-j30+/gdv/local/l1.exe PID=   3802910.
  
 Copyright (c) 1988-2024, Gaussian, Inc.  All Rights Reserved.
  
 This is the private, development version of
 the Gaussian(R) DV system of programs. It is based on
 the Gaussian(R) 16 system (copyright 2016, Gaussian, Inc.),
 the Gaussian(R) 09 system (copyright 2009, Gaussian, Inc.),
 the Gaussian(R) 03 system (copyright 2003, Gaussian, Inc.),
 the Gaussian(R) 98 system (copyright 1998, Gaussian, Inc.),
 the Gaussian(R) 94 system (copyright 1995, Gaussian, Inc.),
 the Gaussian 92(TM) system (copyright 1992, Gaussian, Inc.),
 the Gaussian 90(TM) system (copyright 1990, Gaussian, Inc.),
 the Gaussian 88(TM) system (copyright 1988, Gaussian, Inc.),
 the Gaussian 86(TM) system (copyright 1986, Carnegie Mellon
 University), and the Gaussian 82(TM) system (copyright 1983,
 Carnegie Mellon University). Gaussian is a federally registered
 trademark of Gaussian, Inc.
  
 This software contains proprietary and confidential information,
 including trade secrets, belonging to Gaussian, Inc.
  
 This software is provided under written license and may be
 used, copied, transmitted, or stored only in accord with that
 written license.
  
 The following legend is applicable only to US Government
 contracts under FAR:
  
                    RESTRICTED RIGHTS LEGEND
  
 Use, reproduction and disclosure by the US Government is
 subject to restrictions as set forth in subparagraphs (a)
 and (c) of the Commercial Computer Software - Restricted
 Rights clause in FAR 52.227-19.
  
 Gaussian, Inc.
 340 Quinnipiac St., Bldg. 40, Wallingford CT 06492
  
  
 ---------------------------------------------------------------
 Warning -- This program may not be used in any manner that
 competes with the business of Gaussian, Inc. or will provide
 assistance to any competitor of Gaussian, Inc.  The licensee
 of this program is prohibited from giving any competitor of
 Gaussian, Inc. access to this program.  By using this program,
 the user acknowledges that Gaussian, Inc. is engaged in the
 business of creating and licensing software in the field of
 computational chemistry and represents and warrants to the
 licensee that it is not a competitor of Gaussian, Inc. and that
 it will not use this program in any manner prohibited above.
 ---------------------------------------------------------------
  

 Cite this work as:
 Gaussian Development Version, Revision J.30+,
 M. J. Frisch, G. W. Trucks, G. Scalmani, J. R. Cheeseman, X. Li, 
 J. Bloino, B. G. Janesko, A. V. Marenich, J. Zheng, F. Lipparini, 
 A. Jenkins, A. Liu, H. Liu, H. B. Schlegel, G. E. Scuseria, 
 M. A. Robb, V. Barone, G. A. Petersson, H. Nakatsuji, B. Mennucci, 
 C. Adamo, N. Rega, M. Caricato, H. P. Hratchian, J. V. Ortiz, 
 F. Pawlowski, A. F. Izmaylov, H. Hu, C. Liao, J. L. Sonnenberg, 
 D. Williams-Young, F. Ding, R. Gomperts, F. Egidi, J. Goings, 
 B. Peng, A. Petrone, T. Henderson, D. Ranasinghe, V. G. Zakrzewski, 
 J. Gao, G. Zheng, W. Liang, M. Hada, M. Ehara, K. Toyota, R. Fukuda, 
 J. Hasegawa, M. Ishida, T. Nakajima, Y. Honda, O. Kitao, H. Nakai, 
 T. Vreven, K. Throssell, J. A. Montgomery, Jr., J. E. Peralta, 
 F. Ogliaro, M. J. Bearpark, J. J. Heyd, E. N. Brothers, K. N. Kudin, 
 V. N. Staroverov, T. A. Keith, R. Kobayashi, J. Normand, 
 K. Raghavachari, A. P. Rendell, J. C. Burant, S. S. Iyengar, 
 M. Cossi, J. M. Millam, M. Klene, R. Cammi, R. L. Martin, O. Farkas, 
 J. B. Foresman, and D. J. Fox, Gaussian, Inc., Wallingford CT, 2024.
 
 *******************************************
 Gaussian DV:  ES64L-GDVRevJ.30+ 18-Dec-2024
                  3-Sep-2025 
 *******************************************
 %oldchk=H2O_B3LYP_STO-3G_q0_m1_stab.chk
 %chk=H2O_B3LYP_STO-3G_q0_m1.chk
 Copying data from "H2O_B3LYP_STO-3G_q0_m1_stab.chk" to current chk file "H2O_B3LYP_STO-3G_q0_m1.chk"
 IOpt=  2 FromEx=T IUOpen= 4 IOptOp= 5 NList=   0 IFRang= 0 IUIn= 4 IUOut= 2.
 ----------------------------------------------------------------------
 #p B3LYP guess=read chkbasis geom=allcheck Opt Freq int=superfinegrid 
 scf=xqc
 ----------------------------------------------------------------------
 1/18=20,19=15,26=5,29=7,38=1/1,3;
 2/9=110,12=2/2;
 3/5=7,6=2,11=2,14=-4,25=1,30=1,67=1,71=1,74=-5,75=-7,116=-2/1,2,3;
 4/5=1/1;
 5/5=2,8=3,13=1,38=6/2,8;
 6/7=2,8=2,9=2,10=2,28=1/1;
 7//1,2,3,16;
 1/18=20,19=15,26=5/3(2);
 2/9=110/2;
 99//99;
 2/9=110/2;
 3/5=7,6=1,11=2,14=-2,25=1,30=1,71=1,74=-5,75=-7,82=7,187=7/1,2,3;
 4/5=5,16=3,69=1/1;
 5/5=2,8=3,13=1,38=5/2,8;
 7//1,2,3,16;
 1/18=20,19=15,26=5/3(-5);
 2/9=110/2;
 6/7=2,8=2,9=2,10=2,19=2,28=1/1;
 99/9=1/99;
 Leave Link    1 at Wed Sep  3 18:22:33 2025, MaxMem= 12348030976 cpu:               0.2 elap:               0.1
 (Enter /home/hhratchian/gaussian/gdv-20250101-j30+/gdv/local/l101.exe)
 
  Hrant - IAPOps =                         0
  Hrant - IAPOp1 =                         0
  Hrant - IAPOp2 =                         0
  Hrant - DoAP   =   F
 
 Structure from the checkpoint file:  "H2O_B3LYP_STO-3G_q0_m1.chk"
 ---------------------------------------------
 H2O — B3LYP/STO-3G q=0 m=1 [1/3: Stability]
 ---------------------------------------------
 Charge =     0 Multiplicity =     1
 Z-Matrix found in chk file.
 O,0,0.,0.,0.
 H,0,0.758602,0.,0.504284
 H,0,-0.758602,0.,0.504284
 
 Recover connectivity data from disk.
 Initializing the GIC definitions file.
 ITRead=  0  0  0
 MicOpt= -1 -1 -1
 NAtoms=      3 NQM=        3 NQMF=       0 NMMI=      0 NMMIF=      0
                NMic=       0 NMicF=      0.
                    Isotopes and Nuclear Properties:
 (Nuclear quadrupole moments (NQMom) in fm**2, nuclear magnetic moments (NMagM)
  in nuclear magnetons)

  Atom         1           2           3
 IAtWgt=          16           1           1
 AtmWgt=  15.9949146   1.0078250   1.0078250
 NucSpn=           0           1           1
 AtZEff=    5.600000    1.000000    1.000000
 NQMom=    0.0000000   0.0000000   0.0000000
 NMagM=    0.0000000   2.7928460   2.7928460
 AtZNuc=   8.0000000   1.0000000   1.0000000
 Leave Link  101 at Wed Sep  3 18:22:37 2025, MaxMem= 12348030976 cpu:               3.9 elap:               3.8
 (Enter /home/hhratchian/gaussian/gdv-20250101-j30+/gdv/l103.exe)

 GradGradGradGradGradGradGradGradGradGradGradGradGradGradGradGradGradGrad
 Berny optimization.
 Initialization pass.
                           ----------------------------
                           !    Initial Parameters    !
                           ! (Angstroms and Degrees)  !
 --------------------------                            --------------------------
 ! Name  Definition              Value          Derivative Info.                !
 --------------------------------------------------------------------------------
 ! R1    R(1,2)                  0.9109         estimate D2E/DX2                !
 ! R2    R(1,3)                  0.9109         estimate D2E/DX2                !
 ! A1    A(2,1,3)              112.7717         estimate D2E/DX2                !
 --------------------------------------------------------------------------------
 Trust Radius=3.00D-01 FncErr=1.00D-07 GrdErr=1.00D-07 EigMax=2.50D+02 EigMin=1.00D-04
 Number of steps in this run=     20 maximum allowed number of steps=    100.
 GradGradGradGradGradGradGradGradGradGradGradGradGradGradGradGradGradGrad

 Leave Link  103 at Wed Sep  3 18:22:37 2025, MaxMem= 12348030976 cpu:               0.1 elap:               0.0
 (Enter /home/hhratchian/gaussian/gdv-20250101-j30+/gdv/l202.exe)
                          Input orientation:                          
 ---------------------------------------------------------------------
 Center     Atomic      Atomic             Coordinates (Angstroms)
 Number     Number       Type             X           Y           Z
 ---------------------------------------------------------------------
      1          8           0       -0.000000   -0.000000    0.000000
      2          1           0        0.758602    0.000000    0.504284
      3          1           0       -0.758602   -0.000000    0.504284
 ---------------------------------------------------------------------
                    Distance matrix (angstroms):
                    1          2          3
     1  O    0.000000
     2  H    0.910922   0.000000
     3  H    0.910922   1.517204   0.000000
 Stoichiometry    H2O
 Framework group  C2V[C2(O),SGV(H2)]
 Deg. of freedom     2
 Full point group                 C2V     NOp   4
 RotChk:  IX=0 Diff= 7.38D-16
 Largest Abelian subgroup         C2V     NOp   4
 Largest concise Abelian subgroup C2      NOp   2
                         Standard orientation:                         
 ---------------------------------------------------------------------
 Center     Atomic      Atomic             Coordinates (Angstroms)
 Number     Number       Type             X           Y           Z
 ---------------------------------------------------------------------
      1          8           0       -0.000000    0.000000    0.100857
      2          1           0        0.000000    0.758602   -0.403427
      3          1           0       -0.000000   -0.758602   -0.403427
 ---------------------------------------------------------------------
 Rotational constants (GHZ):        1110.1894251         435.6864908         312.8935057
 Leave Link  202 at Wed Sep  3 18:22:37 2025, MaxMem= 12348030976 cpu:               0.3 elap:               0.0
 (Enter /home/hhratchian/gaussian/gdv-20250101-j30+/gdv/local/l301.exe)
 Basis read from chk: "H2O_B3LYP_STO-3G_q0_m1.chk" (5D, 7F)
 No pseudopotential information found on chk file.
 There are     4 symmetry adapted cartesian basis functions of A1  symmetry.
 There are     0 symmetry adapted cartesian basis functions of A2  symmetry.
 There are     1 symmetry adapted cartesian basis functions of B1  symmetry.
 There are     2 symmetry adapted cartesian basis functions of B2  symmetry.
 There are     4 symmetry adapted basis functions of A1  symmetry.
 There are     0 symmetry adapted basis functions of A2  symmetry.
 There are     1 symmetry adapted basis functions of B1  symmetry.
 There are     2 symmetry adapted basis functions of B2  symmetry.
     7 basis functions,    21 primitive gaussians,     7 cartesian basis functions
     5 alpha electrons        5 beta electrons
       nuclear repulsion energy         9.6435792538 Hartrees.
 IExCor=      4002 DFT=T Ex+Corr=B3LYP ScaHFX=  0.200000
 ScaDFX=  0.800000  0.720000  1.000000  0.810000  1.000000  0.000000
 ScaDFX=  0.000000  0.000000  0.000000  0.000000  0.000000  0.000000
 Grid=SuperFine IRanWt=     -1 IRanGd=            0 ICorTp=0 IEDCtl=  2004
 NAtoms=    3 NActive=    3 NUniq=    2 SFac= 2.25D+00 NAtFMM=   60 NAOKFM=F Big=F
 Integral buffers will be    131072 words long.
 Raffenetti 2 integral format.
 Two-electron integral symmetry is turned on.
 No density basis found on file 200724.
 Leave Link  301 at Wed Sep  3 18:22:37 2025, MaxMem= 12348030976 cpu:               0.2 elap:               0.1
 (Enter /home/hhratchian/gaussian/gdv-20250101-j30+/gdv/l302.exe)
 NPDir=0 NMtPBC=     1 NCelOv=     1 NCel=       1 NClECP=     1 NCelD=      1
         NCelK=      1 NCelE2=     1 NClLst=     1 CellRange=     0.0.
 One-electron integrals computed using PRISM.
 One-electron integral symmetry used in STVInt
 NBasis=     7 RedAO= T EigKep=  3.13D-01  NBF=     4     0     1     2
 NBsUse=     7 1.00D-06 EigRej= -1.00D+00 NBFU=     4     0     1     2
 Precomputing XC quadrature grid using
 IXCGrd=   9 Grid=SuperFine IRanWt=          -1 IRanGd=           0 AccXCQ= 0.00D+00.
 Generated NRdTot=       0 NPtTot=      186094 NUsed=           0 NTot=          64
 NSgBfM=     7     7     7     7     7 MxSgAt=     3 MxSgA2=     3 SizInc=   0.000
 NMBTot=     1281 MaxBatPerAtom=      123 MaxMicBPerAtom=      432 NBfPt=             1123524.
 Leave Link  302 at Wed Sep  3 18:22:37 2025, MaxMem= 12348030976 cpu:               2.1 elap:               0.1
 (Enter /home/hhratchian/gaussian/gdv-20250101-j30+/gdv/l303.exe)
 DipDrv:  MaxL=1.
 Leave Link  303 at Wed Sep  3 18:22:37 2025, MaxMem= 12348030976 cpu:               0.2 elap:               0.0
 (Enter /home/hhratchian/gaussian/gdv-20250101-j30+/gdv/l401.exe)
 Initial guess from the checkpoint file:  "H2O_B3LYP_STO-3G_q0_m1.chk"
 B after Tr=     0.000000   -0.000000    0.000000
         Rot=    1.000000   -0.000000   -0.000000   -0.000000 Ang=   0.00 deg.
 AO Guess basis will be translated and rotated to current coordinates.
 JPrj=2 DoOrth=T DoCkMO=T.
 Initial guess orbital symmetries:
       Occupied  (A1) (A1) (B2) (A1) (B1)
       Virtual   (A1) (B2)
 The electronic state of the initial guess is 1-A1.
 Leave Link  401 at Wed Sep  3 18:22:37 2025, MaxMem= 12348030976 cpu:               0.4 elap:               0.1
 (Enter /home/hhratchian/gaussian/gdv-20250101-j30+/gdv/local/l502.exe)
 Keep R1 ints in memory in symmetry-blocked form, NReq=47923544.
 FoFCou: FMM=F IPFlag=           0 FMFlag=           0 FMFlg1=           0
         NFxFlg=           0 DoJE=F BraDBF=F KetDBF=F FulRan=T
         wScrn=  0.000000 ICntrl=       600 IOpCl=  0 I1Cent=           0 NGrid=           0
         NMat0=    1 NMatS0=     28 NMatT0=    0 NMatD0=    1 NMtDS0=    0 NMtDT0=    0
 Petite list used in FoFCou.
 Closed shell SCF:
 Using DIIS extrapolation, IDIIS=  1040.
 NGot= 12348030976 LenX= 12348027978 LenY= 12348027096
 Requested convergence on RMS density matrix=1.00D-08 within  32 cycles.
 Requested convergence on MAX density matrix=1.00D-06.
 Requested convergence on             energy=1.00D-06.
 No special actions if energy rises.
 
  Hrant - CycOpn.
 

 Cycle   1  Pass 1  IDiag  1:
 E= -75.2893391824243    
 DIIS: error= 3.13D-14 at cycle   1 NSaved=   1.
 NSaved= 1 IEnMin= 1 EnMin= -75.2893391824243     IErMin= 1 ErrMin= 3.13D-14
 ErrMax= 3.13D-14  0.00D+00 EMaxC= 1.00D-01 BMatC= 3.24D-27 BMatP= 3.24D-27
 Rises=F IDIUse=1 WtCom= 1.00D+00 WtEn= 0.00D+00
 Coeff-Com:  0.100D+01
 Coeff:      0.100D+01
 Gap=     0.529 Goal=   None    Shift=    0.000
 Skip diagonalization as Alpha Fock matrix is already diagonal.
 RMSDP=9.51D-32 MaxDP=4.07D-31              OVMax= 0.00D+00

 SCF Done:  E(RB3LYP) =  -75.2893391824     A.U. after    1 cycles
            NFock=  1  Conv=0.95D-31     -V/T= 2.0079
 KE=          74.696713 PE=        -197.889038 EE=          38.259406
 Leave Link  502 at Wed Sep  3 18:22:37 2025, MaxMem= 12348030976 cpu:               2.5 elap:               0.1
 (Enter /home/hhratchian/gaussian/gdv-20250101-j30+/gdv/l508.exe)
 QCSCF skips out because SCF is already converged.
 Leave Link  508 at Wed Sep  3 18:22:37 2025, MaxMem= 12348030976 cpu:               0.1 elap:               0.0
 (Enter /home/hhratchian/gaussian/gdv-20250101-j30+/gdv/l601.exe)
 Copying SCF densities to generalized density rwf, IOpCl= 0 IROHF=0.
 
 **********************************************************************
 
               Population analysis using the SCF Density.
 
 **********************************************************************
 
 Orbital symmetries:
       Occupied  (A1) (A1) (B2) (A1) (B1)
       Virtual   (A1) (B2)
 The electronic state is 1-A1.
 Alpha  occ. eigenvalues --      -18.81868      -0.94796      -0.47653      -0.20500      -0.14138
 Alpha virt. eigenvalues --        0.38716       0.54563
          Condensed to atoms (all electrons):
               1          2          3
     1  O    7.876370   0.275875   0.275875
     2  H    0.275875   0.559606  -0.049542
     3  H    0.275875  -0.049542   0.559606
 Mulliken charges:
               1
     1  O   -0.428121
     2  H    0.214060
     3  H    0.214060
 Sum of Mulliken charges=  -0.00000
 Mulliken charges with hydrogens summed into heavy atoms:
               1
     1  O   -0.000000
 Electronic spatial extent (au):  <R**2>=             17.2143
 Charge=             -0.0000 electrons
 Dipole moment (field-independent basis, Debye):
    X=             -0.0000    Y=             -0.0000    Z=             -1.6964  Tot=              1.6964
 Quadrupole moment (field-independent basis, Debye-Ang):
   XX=             -6.0464   YY=             -4.1323   ZZ=             -5.4925
   XY=              0.0000   XZ=              0.0000   YZ=              0.0000
 Traceless Quadrupole moment (field-independent basis, Debye-Ang):
   XX=             -0.8226   YY=              1.0914   ZZ=             -0.2688
   XY=              0.0000   XZ=              0.0000   YZ=              0.0000
 Octapole moment (field-independent basis, Debye-Ang**2):
  XXX=              0.0000  YYY=             -0.0000  ZZZ=             -0.2121  XYY=             -0.0000
  XXY=             -0.0000  XXZ=             -0.0290  XZZ=              0.0000  YZZ=             -0.0000
  YYZ=             -0.5607  XYZ=             -0.0000
 Hexadecapole moment (field-independent basis, Debye-Ang**3):
 XXXX=             -3.1791 YYYY=             -6.1241 ZZZZ=             -4.3791 XXXY=             -0.0000
 XXXZ=             -0.0000 YYYX=             -0.0000 YYYZ=             -0.0000 ZZZX=             -0.0000
 ZZZY=              0.0000 XXYY=             -1.7228 XXZZ=             -1.2807 YYZZ=             -1.6204
 XXYZ=              0.0000 YYXZ=              0.0000 ZZXY=             -0.0000
 N-N=           9.643579 E-N=        -197.889038  KE=          74.696713
 Symmetry A1   KE=          66.688789
 Symmetry A2   KE=           0.000000
 Symmetry B1   KE=           5.057462
 Symmetry B2   KE=           2.950462
 No NMR shielding tensors so no spin-rotation constants.
 Leave Link  601 at Wed Sep  3 18:22:37 2025, MaxMem= 12348030976 cpu:               2.3 elap:               0.1
 (Enter /home/hhratchian/gaussian/gdv-20250101-j30+/gdv/l701.exe)
 ... and contract with generalized density number  0.
 Compute integral first derivatives.
 Leave Link  701 at Wed Sep  3 18:22:37 2025, MaxMem= 12348030976 cpu:               1.9 elap:               0.1
 (Enter /home/hhratchian/gaussian/gdv-20250101-j30+/gdv/l702.exe)
 L702 exits ... SP integral derivatives will be done elsewhere.
 Leave Link  702 at Wed Sep  3 18:22:37 2025, MaxMem= 12348030976 cpu:               0.1 elap:               0.0
 (Enter /home/hhratchian/gaussian/gdv-20250101-j30+/gdv/l703.exe)
 Integral derivatives from FoFJK, PRISM(SPDF).
 Compute integral first derivatives, UseDBF=F ICtDFT=           0.
 Calling FoFJK, ICntrl=      2127 FMM=F ISym2X=1 I1Cent= 0 IOpClX= 0 NMat=1 NMatS=1 NMatT=0.
 FoFJK:  IHMeth= 1 ICntrl=    2127 DoSepK=F KAlg= 0 I1Cent=           0 FoldK=F
 IRaf=         0 NMat=       1 IRICut=       1 DoRegI=T DoRafI=F ISym2E= 1 IDoP0=0 IntGTp=1.
 FoFCou: FMM=F IPFlag=           0 FMFlag=      100000 FMFlg1=         800
         NFxFlg=           0 DoJE=F BraDBF=F KetDBF=F FulRan=T
         wScrn=  0.000000 ICntrl=      2127 IOpCl=  0 I1Cent=           0 NGrid=           0
         NMat0=    1 NMatS0=      1 NMatT0=    0 NMatD0=    1 NMtDS0=    0 NMtDT0=    0
 Petite list used in FoFCou.
 Leave Link  703 at Wed Sep  3 18:22:37 2025, MaxMem= 12348030976 cpu:               2.9 elap:               0.1
 (Enter /home/hhratchian/gaussian/gdv-20250101-j30+/gdv/l716.exe)
 Dipole        =-4.29837619D-17 0.00000000D+00-6.67426237D-01
 ***** Axes restored to original set *****
 -------------------------------------------------------------------
 Center     Atomic                   Forces (Hartrees/Bohr)
 Number     Number              X              Y              Z
 -------------------------------------------------------------------
      1        8          -0.000000000   -0.000000000   -0.194493542
      2        1           0.095068101    0.000000000    0.097246771
      3        1          -0.095068101    0.000000000    0.097246771
 -------------------------------------------------------------------
 Cartesian Forces:  Max     0.194493542 RMS     0.091175956
 Leave Link  716 at Wed Sep  3 18:22:38 2025, MaxMem= 12348030976 cpu:               0.1 elap:               0.0
 (Enter /home/hhratchian/gaussian/gdv-20250101-j30+/gdv/l103.exe)

 GradGradGradGradGradGradGradGradGradGradGradGradGradGradGradGradGradGrad
 Berny optimization.
 FormGI is forming the generalized inverse of G from B-inverse, IUseBI=4.
 NTrRot=    -1 NTRed=     3 NAtoms=     3 NSkip=     0 NRank=     3 IsLin=F EigSml=8.5452D-01
 Internal  Forces:  Max     0.133006787 RMS     0.112196607
 Search for a local minimum.
 Step number   1 out of a maximum of   20
 All quantities printed in internal units (Hartrees-Bohrs-Radians)
 RMS Force = .11220D+00 SwitMx=.10000D-02 MixMth= 1
 Mixed Optimization -- RFO/linear search
 Second derivative matrix not updated -- first step.
 The second derivative matrix:
                          R1        R2        A1
           R1           0.67525
           R2           0.00000   0.67525
           A1           0.00000   0.00000   0.16000
 ITU=  0
     Eigenvalues ---    0.16000   0.67525   0.67525
 RFO step:  Lambda=-5.90600904D-02 EMin= 1.60000000D-01
 Linear search not attempted -- first point.
 Maximum step size (   0.300) exceeded in Quadratic search.
    -- Step size scaled by   0.884
 GrdOpt: GIC=T ITstSp=  0 NP=   1 DidLin=F DidDIS=F IDoGRo=0 IDoRot=0
         ISwap=1 XLin= 0.000 DXMaxT= 0.300
 Iteration  1 RMS(Cart)=  0.06523535 RMS(Int)=  0.01173376
 Iteration  2 RMS(Cart)=  0.00790135 RMS(Int)=  0.00006993
 Iteration  3 RMS(Cart)=  0.00002664 RMS(Int)=  0.00000000
 Iteration  4 RMS(Cart)=  0.00000000 RMS(Int)=  0.00000000
 ClnCor:  largest displacement from symmetrization is 6.28D-16 for atom     3.
 Variable       Old X    -DE/DX   Delta X   Delta X   Delta X     New X
                                 (Linear)    (Quad)   (Total)
    R1        1.72139   0.13301   0.00000   0.16005   0.16005   1.88145
    R2        1.72139   0.13301   0.00000   0.16005   0.16005   1.88145
    A1        1.96824  -0.04881   0.00000  -0.19689  -0.19689   1.77134
         Item               Value     Threshold  Converged?
 Maximum Force            0.133007     0.000450     NO 
 RMS     Force            0.112197     0.000300     NO 
 Maximum Displacement     0.158375     0.001800     NO 
 RMS     Displacement     0.113596     0.001200     NO 
 Predicted change in Energy=-3.178779D-02
 Lowest energy point so far.  Saving SCF results.
 GradGradGradGradGradGradGradGradGradGradGradGradGradGradGradGradGradGrad

 Leave Link  103 at Wed Sep  3 18:22:38 2025, MaxMem= 12348030976 cpu:               0.2 elap:               0.0
 (Enter /home/hhratchian/gaussian/gdv-20250101-j30+/gdv/l202.exe)
                          Input orientation:                          
 ---------------------------------------------------------------------
 Center     Atomic      Atomic             Coordinates (Angstroms)
 Number     Number       Type             X           Y           Z
 ---------------------------------------------------------------------
      1          8           0       -0.000000    0.000000   -0.083808
      2          1           0        0.770947    0.000000    0.546188
      3          1           0       -0.770947   -0.000000    0.546188
 ---------------------------------------------------------------------
                    Distance matrix (angstroms):
                    1          2          3
     1  O    0.000000
     2  H    0.995618   0.000000
     3  H    0.995618   1.541895   0.000000
 Stoichiometry    H2O
 Framework group  C2V[C2(O),SGV(H2)]
 Deg. of freedom     2
 Full point group                 C2V     NOp   4
 RotChk:  IX=0 Diff= 5.55D-16
 Largest Abelian subgroup         C2V     NOp   4
 Largest concise Abelian subgroup C2      NOp   2
                         Standard orientation:                         
 ---------------------------------------------------------------------
 Center     Atomic      Atomic             Coordinates (Angstroms)
 Number     Number       Type             X           Y           Z
 ---------------------------------------------------------------------
      1          8           0       -0.000000   -0.000000    0.125999
      2          1           0       -0.000000    0.770947   -0.503997
      3          1           0       -0.000000   -0.770947   -0.503997
 ---------------------------------------------------------------------
 Rotational constants (GHZ):         711.3305884         421.8446921         264.8054879
 Leave Link  202 at Wed Sep  3 18:22:38 2025, MaxMem= 12348030976 cpu:               0.3 elap:               0.0
 (Enter /home/hhratchian/gaussian/gdv-20250101-j30+/gdv/local/l301.exe)
 Basis read from rwf:  (5D, 7F)
 No pseudopotential information found on rwf file.
 There are     4 symmetry adapted cartesian basis functions of A1  symmetry.
 There are     0 symmetry adapted cartesian basis functions of A2  symmetry.
 There are     1 symmetry adapted cartesian basis functions of B1  symmetry.
 There are     2 symmetry adapted cartesian basis functions of B2  symmetry.
 There are     4 symmetry adapted basis functions of A1  symmetry.
 There are     0 symmetry adapted basis functions of A2  symmetry.
 There are     1 symmetry adapted basis functions of B1  symmetry.
 There are     2 symmetry adapted basis functions of B2  symmetry.
     7 basis functions,    21 primitive gaussians,     7 cartesian basis functions
     5 alpha electrons        5 beta electrons
       nuclear repulsion energy         8.8472997348 Hartrees.
 IExCor=      4002 DFT=T Ex+Corr=B3LYP ScaHFX=  0.200000
 ScaDFX=  0.800000  0.720000  1.000000  0.810000  1.000000  0.000000
 ScaDFX=  0.000000  0.000000  0.000000  0.000000  0.000000  0.000000
 Grid=SuperFine IRanWt=     -1 IRanGd=            0 ICorTp=0 IEDCtl=  2004
 NAtoms=    3 NActive=    3 NUniq=    2 SFac= 2.25D+00 NAtFMM=   60 NAOKFM=F Big=F
 Integral buffers will be    131072 words long.
 Raffenetti 2 integral format.
 Two-electron integral symmetry is turned on.
 No density basis found on file    724.
 Leave Link  301 at Wed Sep  3 18:22:38 2025, MaxMem= 12348030976 cpu:               0.2 elap:               0.1
 (Enter /home/hhratchian/gaussian/gdv-20250101-j30+/gdv/l302.exe)
 NPDir=0 NMtPBC=     1 NCelOv=     1 NCel=       1 NClECP=     1 NCelD=      1
         NCelK=      1 NCelE2=     1 NClLst=     1 CellRange=     0.0.
 One-electron integrals computed using PRISM.
 One-electron integral symmetry used in STVInt
 NBasis=     7 RedAO= T EigKep=  3.67D-01  NBF=     4     0     1     2
 NBsUse=     7 1.00D-06 EigRej= -1.00D+00 NBFU=     4     0     1     2
 Precomputing XC quadrature grid using
 IXCGrd=   9 Grid=SuperFine IRanWt=          -1 IRanGd=           0 AccXCQ= 0.00D+00.
 Generated NRdTot=       0 NPtTot=      186184 NUsed=           0 NTot=          64
 NSgBfM=     7     7     7     7     7 MxSgAt=     3 MxSgA2=     3 SizInc=   0.000
 NMBTot=     1264 MaxBatPerAtom=      123 MaxMicBPerAtom=      430 NBfPt=             1125230.
 Leave Link  302 at Wed Sep  3 18:22:38 2025, MaxMem= 12348030976 cpu:               2.1 elap:               0.1
 (Enter /home/hhratchian/gaussian/gdv-20250101-j30+/gdv/l303.exe)
 DipDrv:  MaxL=1.
 Leave Link  303 at Wed Sep  3 18:22:38 2025, MaxMem= 12348030976 cpu:               0.2 elap:               0.0
 (Enter /home/hhratchian/gaussian/gdv-20250101-j30+/gdv/l401.exe)
 Initial guess from the checkpoint file:  "H2O_B3LYP_STO-3G_q0_m1.chk"
 B after Tr=    -0.000000   -0.000000    0.000000
         Rot=    1.000000   -0.000000    0.000000   -0.000000 Ang=   0.00 deg.
 AO Guess basis will be translated and rotated to current coordinates.
 JPrj=2 DoOrth=T DoCkMO=T.
 Initial guess orbital symmetries:
       Occupied  (A1) (A1) (B2) (A1) (B1)
       Virtual   (A1) (B2)
 The electronic state of the initial guess is 1-A1.
 Generating alternative initial guess.
 ExpMin= 1.69D-01 ExpMax= 1.31D+02 ExpMxC= 1.31D+02 IAcc=3 Grid=SuperFine AccDes= 0.00D+00
 Harris functional with IExCor= 4002 and Grid=SuperFine diagonalized for initial guess.
 HarFok:  IExCor=    4002 AccDes= 0.00D+00 Grid=SuperFine IDoV= 1 UseB2=F ITyADJ=14 ICtDFT=  3500011
 FoFCou: FMM=F IPFlag=           0 FMFlag=      100000 FMFlg1=           0
         NFxFlg=           0 DoJE=T BraDBF=F KetDBF=T FulRan=T
         wScrn=  0.000000 ICntrl=       500 IOpCl=  0 I1Cent=   200000004 NGrid=           0
         NMat0=    1 NMatS0=      1 NMatT0=    0 NMatD0=    1 NMtDS0=    0 NMtDT0=    0
 Petite list used in FoFCou.
 Harris En= -75.3726425336805    
 Leave Link  401 at Wed Sep  3 18:22:38 2025, MaxMem= 12348030976 cpu:               4.0 elap:               0.2
 (Enter /home/hhratchian/gaussian/gdv-20250101-j30+/gdv/local/l502.exe)
 Keep R1 ints in memory in symmetry-blocked form, NReq=47923544.
 FoFCou: FMM=F IPFlag=           0 FMFlag=           0 FMFlg1=           0
         NFxFlg=           0 DoJE=F BraDBF=F KetDBF=F FulRan=T
         wScrn=  0.000000 ICntrl=       600 IOpCl=  0 I1Cent=           0 NGrid=           0
         NMat0=    1 NMatS0=     28 NMatT0=    0 NMatD0=    1 NMtDS0=    0 NMtDT0=    0
 Petite list used in FoFCou.
 Closed shell SCF:
 Using DIIS extrapolation, IDIIS=  1040.
 NGot= 12348030976 LenX= 12348027978 LenY= 12348027096
 Requested convergence on RMS density matrix=1.00D-08 within  32 cycles.
 Requested convergence on MAX density matrix=1.00D-06.
 Requested convergence on             energy=1.00D-06.
 No special actions if energy rises.
 Integral accuracy reduced to 1.0D-05 until final iterations.
 
  Hrant - CycOpn.
 

 Cycle   1  Pass 0  IDiag  1:
 E= -75.3144405247008    
 DIIS: error= 2.10D-02 at cycle   1 NSaved=   1.
 NSaved= 1 IEnMin= 1 EnMin= -75.3144405247008     IErMin= 1 ErrMin= 2.10D-02
 ErrMax= 2.10D-02  0.00D+00 EMaxC= 1.00D-01 BMatC= 1.44D-03 BMatP= 1.44D-03
 Rises=F IDIUse=3 WtCom= 7.90D-01 WtEn= 2.10D-01
 Coeff-Com:  0.100D+01
 Coeff-En:   0.100D+01
 Coeff:      0.100D+01
 Recover alternate guess density for next cycle.
 RMSDP=2.83D-02 MaxDP=1.21D-01              OVMax= 0.00D+00

 Cycle   2  Pass 0  IDiag  1:
 E= -75.2703550186932     Delta-E=        0.044085506008 Rises=F Damp=F AM=F Ri=F Fa=F
 Switch densities from cycles 1 and 2 for lowest energy.
 DIIS: error= 7.33D-02 at cycle   2 NSaved=   2.
 NSaved= 2 IEnMin= 1 EnMin= -75.3144405247008     IErMin= 1 ErrMin= 2.10D-02
 ErrMax= 7.33D-02  0.00D+00 EMaxC= 1.00D+00 BMatC= 1.74D-02 BMatP= 1.44D-03
 Rises=T IDIUse=1 WtCom= 1.00D+00 WtEn= 0.00D+00
 Coeff-Com:  0.116D+01-0.158D+00
 Coeff:      0.116D+01-0.158D+00
 Gap=     0.457 Goal=   None    Shift=    0.000
 RMSDP=2.35D-02 MaxDP=7.75D-02 DE= 4.41D-02 OVMax= 0.00D+00

 Cycle   3  Pass 0  IDiag  1:
 E= -75.3201463609054     Delta-E=       -0.049791342212 Rises=F Damp=F AM=F Ri=F Fa=F
 DIIS: error= 7.06D-03 at cycle   3 NSaved=   3.
 NSaved= 3 IEnMin= 3 EnMin= -75.3201463609054     IErMin= 3 ErrMin= 7.06D-03
 ErrMax= 7.06D-03  0.00D+00 EMaxC= 1.00D+00 BMatC= 1.45D-04 BMatP= 1.44D-03
 Rises=F IDIUse=1 WtCom= 1.00D+00 WtEn= 0.00D+00
 Coeff-Com: -0.945D-01 0.106D+00 0.989D+00
 Coeff:     -0.945D-01 0.106D+00 0.989D+00
 Gap=     0.470 Goal=   None    Shift=    0.000
 RMSDP=3.07D-03 MaxDP=1.25D-02 DE=-4.98D-02 OVMax= 0.00D+00

 Cycle   4  Pass 0  IDiag  1:
 E= -75.3205310039160     Delta-E=       -0.000384643011 Rises=F Damp=F AM=F Ri=F Fa=F
 DIIS: error= 1.78D-04 at cycle   4 NSaved=   4.
 NSaved= 4 IEnMin= 4 EnMin= -75.3205310039160     IErMin= 4 ErrMin= 1.78D-04
 ErrMax= 1.78D-04  0.00D+00 EMaxC= 1.00D+00 BMatC= 7.86D-08 BMatP= 1.45D-04
 Rises=F IDIUse=1 WtCom= 1.00D+00 WtEn= 0.00D+00
 Coeff-Com: -0.133D-02 0.611D-03-0.190D-01 0.102D+01
 Coeff:     -0.133D-02 0.611D-03-0.190D-01 0.102D+01
 Gap=     0.470 Goal=   None    Shift=    0.000
 RMSDP=8.40D-05 MaxDP=3.48D-04 DE=-3.85D-04 OVMax= 0.00D+00

 Cycle   5  Pass 0  IDiag  1:
 E= -75.3205312323371     Delta-E=       -0.000000228421 Rises=F Damp=F AM=F Ri=F Fa=F
 DIIS: error= 1.59D-06 at cycle   5 NSaved=   5.
 NSaved= 5 IEnMin= 5 EnMin= -75.3205312323371     IErMin= 5 ErrMin= 1.59D-06
 ErrMax= 1.59D-06  0.00D+00 EMaxC= 1.00D+00 BMatC= 9.21D-12 BMatP= 7.86D-08
 Rises=F IDIUse=1 WtCom= 1.00D+00 WtEn= 0.00D+00
 Coeff-Com:  0.152D-03-0.181D-03-0.177D-02-0.495D-02 0.101D+01
 Coeff:      0.152D-03-0.181D-03-0.177D-02-0.495D-02 0.101D+01
 Gap=     0.470 Goal=   None    Shift=    0.000
 RMSDP=1.68D-06 MaxDP=5.28D-06 DE=-2.28D-07 OVMax= 0.00D+00

 Initial convergence to 1.0D-05 achieved.  Increase integral accuracy.
 Cycle   6  Pass 1  IDiag  1:
 E= -75.3205312745900     Delta-E=       -0.000000042253 Rises=F Damp=F AM=F Ri=F Fa=F
 DIIS: error= 8.97D-08 at cycle   1 NSaved=   1.
 NSaved= 1 IEnMin= 1 EnMin= -75.3205312745900     IErMin= 1 ErrMin= 8.97D-08
 ErrMax= 8.97D-08  0.00D+00 EMaxC= 1.00D+00 BMatC= 2.17D-14 BMatP= 2.17D-14
 Rises=F IDIUse=1 WtCom= 1.00D+00 WtEn= 0.00D+00
 Coeff-Com:  0.100D+01
 Coeff:      0.100D+01
 Gap=     0.470 Goal=   None    Shift=    0.000
 RMSDP=1.68D-06 MaxDP=5.28D-06 DE=-4.23D-08 OVMax= 0.00D+00

 Cycle   7  Pass 1  IDiag  1:
 E= -75.3205312745900     Delta-E=       -0.000000000000 Rises=F Damp=F AM=F Ri=F Fa=F
 DIIS: error= 5.55D-08 at cycle   2 NSaved=   2.
 NSaved= 2 IEnMin= 2 EnMin= -75.3205312745900     IErMin= 2 ErrMin= 5.55D-08
 ErrMax= 5.55D-08  0.00D+00 EMaxC= 1.00D+00 BMatC= 1.20D-14 BMatP= 2.17D-14
 Rises=F IDIUse=1 WtCom= 1.00D+00 WtEn= 0.00D+00
 Coeff-Com:  0.424D+00 0.576D+00
 Coeff:      0.424D+00 0.576D+00
 Gap=     0.470 Goal=   None    Shift=    0.000
 RMSDP=3.14D-08 MaxDP=9.82D-08 DE=-4.26D-14 OVMax= 0.00D+00

 Cycle   8  Pass 1  IDiag  1:
 E= -75.3205312745900     Delta-E=       -0.000000000000 Rises=F Damp=F AM=F Ri=F Fa=F
 DIIS: error= 3.20D-09 at cycle   3 NSaved=   3.
 NSaved= 3 IEnMin= 3 EnMin= -75.3205312745900     IErMin= 3 ErrMin= 3.20D-09
 ErrMax= 3.20D-09  0.00D+00 EMaxC= 1.00D+00 BMatC= 2.80D-17 BMatP= 1.20D-14
 Rises=F IDIUse=1 WtCom= 1.00D+00 WtEn= 0.00D+00
 Coeff-Com: -0.268D-01 0.114D-01 0.102D+01
 Coeff:     -0.268D-01 0.114D-01 0.102D+01
 Gap=     0.470 Goal=   None    Shift=    0.000
 RMSDP=1.54D-09 MaxDP=5.87D-09 DE=-2.84D-14 OVMax= 0.00D+00

 SCF Done:  E(RB3LYP) =  -75.3205312746     A.U. after    8 cycles
            NFock=  8  Conv=0.15D-08     -V/T= 2.0107
 KE=          74.522781 PE=        -196.253502 EE=          37.562889
 Leave Link  502 at Wed Sep  3 18:22:38 2025, MaxMem= 12348030976 cpu:               5.3 elap:               0.2
 (Enter /home/hhratchian/gaussian/gdv-20250101-j30+/gdv/l508.exe)
 QCSCF skips out because SCF is already converged.
 Leave Link  508 at Wed Sep  3 18:22:38 2025, MaxMem= 12348030976 cpu:               0.1 elap:               0.0
 (Enter /home/hhratchian/gaussian/gdv-20250101-j30+/gdv/l701.exe)
 ... and contract with generalized density number  0.
 Compute integral first derivatives.
 Leave Link  701 at Wed Sep  3 18:22:38 2025, MaxMem= 12348030976 cpu:               2.0 elap:               0.1
 (Enter /home/hhratchian/gaussian/gdv-20250101-j30+/gdv/l702.exe)
 L702 exits ... SP integral derivatives will be done elsewhere.
 Leave Link  702 at Wed Sep  3 18:22:38 2025, MaxMem= 12348030976 cpu:               0.1 elap:               0.0
 (Enter /home/hhratchian/gaussian/gdv-20250101-j30+/gdv/l703.exe)
 Integral derivatives from FoFJK, PRISM(SPDF).
 Compute integral first derivatives, UseDBF=F ICtDFT=           0.
 Calling FoFJK, ICntrl=      2127 FMM=F ISym2X=1 I1Cent= 0 IOpClX= 0 NMat=1 NMatS=1 NMatT=0.
 FoFJK:  IHMeth= 1 ICntrl=    2127 DoSepK=F KAlg= 0 I1Cent=           0 FoldK=F
 IRaf=         0 NMat=       1 IRICut=       1 DoRegI=T DoRafI=F ISym2E= 1 IDoP0=0 IntGTp=1.
 FoFCou: FMM=F IPFlag=           0 FMFlag=      100000 FMFlg1=         800
         NFxFlg=           0 DoJE=F BraDBF=F KetDBF=F FulRan=T
         wScrn=  0.000000 ICntrl=      2127 IOpCl=  0 I1Cent=           0 NGrid=           0
         NMat0=    1 NMatS0=      1 NMatT0=    0 NMatD0=    1 NMtDS0=    0 NMtDT0=    0
 Petite list used in FoFCou.
 Leave Link  703 at Wed Sep  3 18:22:38 2025, MaxMem= 12348030976 cpu:               3.1 elap:               0.1
 (Enter /home/hhratchian/gaussian/gdv-20250101-j30+/gdv/l716.exe)
 Dipole        =-3.46984723D-17 0.00000000D+00-6.41036831D-01
 ***** Axes restored to original set *****
 -------------------------------------------------------------------
 Center     Atomic                   Forces (Hartrees/Bohr)
 Number     Number              X              Y              Z
 -------------------------------------------------------------------
      1        8          -0.000000000   -0.000000000   -0.048945378
      2        1           0.016276427    0.000000000    0.024472689
      3        1          -0.016276427    0.000000000    0.024472689
 -------------------------------------------------------------------
 Cartesian Forces:  Max     0.048945378 RMS     0.021404359
 Leave Link  716 at Wed Sep  3 18:22:39 2025, MaxMem= 12348030976 cpu:               0.1 elap:               0.0
 (Enter /home/hhratchian/gaussian/gdv-20250101-j30+/gdv/l103.exe)

 GradGradGradGradGradGradGradGradGradGradGradGradGradGradGradGradGradGrad
 Berny optimization.
 Using GEDIIS/GDIIS optimizer.
 FormGI is forming the generalized inverse of G from B-inverse, IUseBI=4.
 NTrRot=    -1 NTRed=     3 NAtoms=     3 NSkip=     0 NRank=     3 IsLin=F EigSml=7.3396D-01
 Internal  Forces:  Max     0.028089058 RMS     0.024785140
 Search for a local minimum.
 Step number   2 out of a maximum of   20
 All quantities printed in internal units (Hartrees-Bohrs-Radians)
 RMS Force = .24785D-01 SwitMx=.10000D-02 MixMth= 1
 Mixed Optimization -- RFO/linear search
 Update second derivatives using D2CorX and points    1    2
 DE= -3.12D-02 DEPred=-3.18D-02 R= 9.81D-01
 TightC=F SS=  1.41D+00  RLast= 3.00D-01 DXNew= 5.0454D-01 9.0000D-01
 Trust test= 9.81D-01 RLast= 3.00D-01 DXMaxT set to 5.05D-01
 The second derivative matrix:
                          R1        R2        A1
           R1           0.66421
           R2          -0.01104   0.66421
           A1          -0.00191  -0.00191   0.16215
 ITU=  1  0
 Use linear search instead of GDIIS.
     Eigenvalues ---    0.16213   0.65319   0.67525
 RFO step:  Lambda=-8.06952663D-04 EMin= 1.62130261D-01
 Quartic linear search produced a step of  0.38018.
 GrdOpt: GIC=T ITstSp=  0 NP=   2 DidLin=T DidDIS=F IDoGRo=0 IDoRot=0
         ISwap=1 XLin= 0.380 DXMaxT= 0.505
 Iteration  1 RMS(Cart)=  0.04181247 RMS(Int)=  0.00426490
 Iteration  2 RMS(Cart)=  0.00274016 RMS(Int)=  0.00000594
 Iteration  3 RMS(Cart)=  0.00000278 RMS(Int)=  0.00000000
 Iteration  4 RMS(Cart)=  0.00000000 RMS(Int)=  0.00000000
 ClnCor:  largest displacement from symmetrization is 4.97D-16 for atom     3.
 Variable       Old X    -DE/DX   Delta X   Delta X   Delta X     New X
                                 (Linear)    (Quad)   (Total)
    R1        1.88145   0.02809   0.06085  -0.01005   0.05080   1.93224
    R2        1.88145   0.02809   0.06085  -0.01005   0.05080   1.93224
    A1        1.77134  -0.01628  -0.07485  -0.06459  -0.13944   1.63190
         Item               Value     Threshold  Converged?
 Maximum Force            0.028089     0.000450     NO 
 RMS     Force            0.024785     0.000300     NO 
 Maximum Displacement     0.088937     0.001800     NO 
 RMS     Displacement     0.074746     0.001200     NO 
 Predicted change in Energy=-1.834463D-03
 Lowest energy point so far.  Saving SCF results.
 GradGradGradGradGradGradGradGradGradGradGradGradGradGradGradGradGradGrad

 Leave Link  103 at Wed Sep  3 18:22:39 2025, MaxMem= 12348030976 cpu:               0.2 elap:               0.0
 (Enter /home/hhratchian/gaussian/gdv-20250101-j30+/gdv/l202.exe)
                          Input orientation:                          
 ---------------------------------------------------------------------
 Center     Atomic      Atomic             Coordinates (Angstroms)
 Number     Number       Type             X           Y           Z
 ---------------------------------------------------------------------
      1          8           0       -0.000000    0.000000   -0.130872
      2          1           0        0.744765    0.000000    0.569720
      3          1           0       -0.744765   -0.000000    0.569720
 ---------------------------------------------------------------------
                    Distance matrix (angstroms):
                    1          2          3
     1  O    0.000000
     2  H    1.022499   0.000000
     3  H    1.022499   1.489530   0.000000
 Stoichiometry    H2O
 Framework group  C2V[C2(O),SGV(H2)]
 Deg. of freedom     2
 Full point group                 C2V     NOp   4
 RotChk:  IX=0 Diff= 9.94D-16
 Largest Abelian subgroup         C2V     NOp   4
 Largest concise Abelian subgroup C2      NOp   2
                         Standard orientation:                         
 ---------------------------------------------------------------------
 Center     Atomic      Atomic             Coordinates (Angstroms)
 Number     Number       Type             X           Y           Z
 ---------------------------------------------------------------------
      1          8           0       -0.000000    0.000000    0.140118
      2          1           0        0.000000    0.744765   -0.560473
      3          1           0       -0.000000   -0.744765   -0.560473
 ---------------------------------------------------------------------
 Rotational constants (GHZ):         575.1984686         452.0259799         253.1137687
 Leave Link  202 at Wed Sep  3 18:22:39 2025, MaxMem= 12348030976 cpu:               0.3 elap:               0.0
 (Enter /home/hhratchian/gaussian/gdv-20250101-j30+/gdv/local/l301.exe)
 Basis read from rwf:  (5D, 7F)
 No pseudopotential information found on rwf file.
 There are     4 symmetry adapted cartesian basis functions of A1  symmetry.
 There are     0 symmetry adapted cartesian basis functions of A2  symmetry.
 There are     1 symmetry adapted cartesian basis functions of B1  symmetry.
 There are     2 symmetry adapted cartesian basis functions of B2  symmetry.
 There are     4 symmetry adapted basis functions of A1  symmetry.
 There are     0 symmetry adapted basis functions of A2  symmetry.
 There are     1 symmetry adapted basis functions of B1  symmetry.
 There are     2 symmetry adapted basis functions of B2  symmetry.
     7 basis functions,    21 primitive gaussians,     7 cartesian basis functions
     5 alpha electrons        5 beta electrons
       nuclear repulsion energy         8.6357987413 Hartrees.
 IExCor=      4002 DFT=T Ex+Corr=B3LYP ScaHFX=  0.200000
 ScaDFX=  0.800000  0.720000  1.000000  0.810000  1.000000  0.000000
 ScaDFX=  0.000000  0.000000  0.000000  0.000000  0.000000  0.000000
 Grid=SuperFine IRanWt=     -1 IRanGd=            0 ICorTp=0 IEDCtl=  2004
 NAtoms=    3 NActive=    3 NUniq=    2 SFac= 2.25D+00 NAtFMM=   60 NAOKFM=F Big=F
 Integral buffers will be    131072 words long.
 Raffenetti 2 integral format.
 Two-electron integral symmetry is turned on.
 No density basis found on file    724.
 Leave Link  301 at Wed Sep  3 18:22:39 2025, MaxMem= 12348030976 cpu:               0.2 elap:               0.1
 (Enter /home/hhratchian/gaussian/gdv-20250101-j30+/gdv/l302.exe)
 NPDir=0 NMtPBC=     1 NCelOv=     1 NCel=       1 NClECP=     1 NCelD=      1
         NCelK=      1 NCelE2=     1 NClLst=     1 CellRange=     0.0.
 One-electron integrals computed using PRISM.
 One-electron integral symmetry used in STVInt
 NBasis=     7 RedAO= T EigKep=  3.86D-01  NBF=     4     0     1     2
 NBsUse=     7 1.00D-06 EigRej= -1.00D+00 NBFU=     4     0     1     2
 Precomputing XC quadrature grid using
 IXCGrd=   9 Grid=SuperFine IRanWt=          -1 IRanGd=           0 AccXCQ= 0.00D+00.
 Generated NRdTot=       0 NPtTot=      186279 NUsed=           0 NTot=          64
 NSgBfM=     7     7     7     7     7 MxSgAt=     3 MxSgA2=     3 SizInc=   0.000
 NMBTot=     1253 MaxBatPerAtom=      123 MaxMicBPerAtom=      420 NBfPt=             1126612.
 Leave Link  302 at Wed Sep  3 18:22:39 2025, MaxMem= 12348030976 cpu:               2.2 elap:               0.1
 (Enter /home/hhratchian/gaussian/gdv-20250101-j30+/gdv/l303.exe)
 DipDrv:  MaxL=1.
 Leave Link  303 at Wed Sep  3 18:22:39 2025, MaxMem= 12348030976 cpu:               0.2 elap:               0.0
 (Enter /home/hhratchian/gaussian/gdv-20250101-j30+/gdv/l401.exe)
 Initial guess from the checkpoint file:  "H2O_B3LYP_STO-3G_q0_m1.chk"
 B after Tr=     0.000000    0.000000   -0.000000
         Rot=    1.000000   -0.000000   -0.000000    0.000000 Ang=   0.00 deg.
 AO Guess basis will be translated and rotated to current coordinates.
 JPrj=2 DoOrth=T DoCkMO=T.
 Initial guess orbital symmetries:
       Occupied  (A1) (A1) (B2) (A1) (B1)
       Virtual   (A1) (B2)
 The electronic state of the initial guess is 1-A1.
 Generating alternative initial guess.
 ExpMin= 1.69D-01 ExpMax= 1.31D+02 ExpMxC= 1.31D+02 IAcc=3 Grid=SuperFine AccDes= 0.00D+00
 Harris functional with IExCor= 4002 and Grid=SuperFine diagonalized for initial guess.
 HarFok:  IExCor=    4002 AccDes= 0.00D+00 Grid=SuperFine IDoV= 1 UseB2=F ITyADJ=14 ICtDFT=  3500011
 FoFCou: FMM=F IPFlag=           0 FMFlag=      100000 FMFlg1=           0
         NFxFlg=           0 DoJE=T BraDBF=F KetDBF=T FulRan=T
         wScrn=  0.000000 ICntrl=       500 IOpCl=  0 I1Cent=   200000004 NGrid=           0
         NMat0=    1 NMatS0=      1 NMatT0=    0 NMatD0=    1 NMtDS0=    0 NMtDT0=    0
 Petite list used in FoFCou.
 Harris En= -75.3691644367376    
 Leave Link  401 at Wed Sep  3 18:22:39 2025, MaxMem= 12348030976 cpu:               3.9 elap:               0.1
 (Enter /home/hhratchian/gaussian/gdv-20250101-j30+/gdv/local/l502.exe)
 Keep R1 ints in memory in symmetry-blocked form, NReq=47923544.
 FoFCou: FMM=F IPFlag=           0 FMFlag=           0 FMFlg1=           0
         NFxFlg=           0 DoJE=F BraDBF=F KetDBF=F FulRan=T
         wScrn=  0.000000 ICntrl=       600 IOpCl=  0 I1Cent=           0 NGrid=           0
         NMat0=    1 NMatS0=     28 NMatT0=    0 NMatD0=    1 NMtDS0=    0 NMtDT0=    0
 Petite list used in FoFCou.
 Closed shell SCF:
 Using DIIS extrapolation, IDIIS=  1040.
 NGot= 12348030976 LenX= 12348027978 LenY= 12348027096
 Requested convergence on RMS density matrix=1.00D-08 within  32 cycles.
 Requested convergence on MAX density matrix=1.00D-06.
 Requested convergence on             energy=1.00D-06.
 No special actions if energy rises.
 Integral accuracy reduced to 1.0D-05 until final iterations.
 
  Hrant - CycOpn.
 

 Cycle   1  Pass 0  IDiag  1:
 E= -75.3211098462208    
 DIIS: error= 8.04D-03 at cycle   1 NSaved=   1.
 NSaved= 1 IEnMin= 1 EnMin= -75.3211098462208     IErMin= 1 ErrMin= 8.04D-03
 ErrMax= 8.04D-03  0.00D+00 EMaxC= 1.00D-01 BMatC= 1.97D-04 BMatP= 1.97D-04
 Rises=F IDIUse=3 WtCom= 9.28D-01 WtEn= 7.21D-02
 Coeff-Com:  0.100D+01
 Coeff-En:   0.100D+01
 Coeff:      0.100D+01
 Gap=     0.451 Goal=   None    Shift=    0.000
 GapD=    0.451 DampG=2.000 DampE=1.000 DampFc=2.0000 IDamp=-1.
 RMSDP=1.03D-02 MaxDP=3.59D-02              OVMax= 0.00D+00

 Cycle   2  Pass 0  IDiag  1:
 E= -75.3218877848689     Delta-E=       -0.000777938648 Rises=F Damp=F AM=F Ri=F Fa=F
 DIIS: error= 5.22D-03 at cycle   2 NSaved=   2.
 NSaved= 2 IEnMin= 2 EnMin= -75.3218877848689     IErMin= 2 ErrMin= 5.22D-03
 ErrMax= 5.22D-03  0.00D+00 EMaxC= 1.00D-01 BMatC= 8.34D-05 BMatP= 1.97D-04
 Rises=F IDIUse=3 WtCom= 9.62D-01 WtEn= 3.78D-02
 Coeff-Com:  0.356D+00 0.644D+00
 Coeff-En:   0.000D+00 0.100D+01
 Coeff:      0.343D+00 0.657D+00
 Gap=     0.460 Goal=   None    Shift=    0.000
 RMSDP=2.93D-03 MaxDP=1.01D-02 DE=-7.78D-04 OVMax= 0.00D+00

 Cycle   3  Pass 0  IDiag  1:
 E= -75.3220967101114     Delta-E=       -0.000208925242 Rises=F Damp=F AM=F Ri=F Fa=F
 DIIS: error= 9.52D-04 at cycle   3 NSaved=   3.
 NSaved= 3 IEnMin= 3 EnMin= -75.3220967101114     IErMin= 3 ErrMin= 9.52D-04
 ErrMax= 9.52D-04  0.00D+00 EMaxC= 1.00D-01 BMatC= 5.18D-06 BMatP= 8.34D-05
 Rises=F IDIUse=3 WtCom= 9.97D-01 WtEn= 2.94D-03
 Coeff-Com: -0.413D-01 0.177D+00 0.865D+00
 Coeff-En:   0.000D+00 0.000D+00 0.100D+01
 Coeff:     -0.412D-01 0.176D+00 0.865D+00
 Gap=     0.459 Goal=   None    Shift=    0.000
 RMSDP=7.62D-04 MaxDP=2.87D-03 DE=-2.09D-04 OVMax= 0.00D+00

 Cycle   4  Pass 0  IDiag  1:
 E= -75.3221123705263     Delta-E=       -0.000015660415 Rises=F Damp=F AM=F Ri=F Fa=F
 DIIS: error= 1.45D-05 at cycle   4 NSaved=   4.
 NSaved= 4 IEnMin= 4 EnMin= -75.3221123705263     IErMin= 4 ErrMin= 1.45D-05
 ErrMax= 1.45D-05  0.00D+00 EMaxC= 1.00D-01 BMatC= 7.52D-10 BMatP= 5.18D-06
 Rises=F IDIUse=1 WtCom= 1.00D+00 WtEn= 0.00D+00
 Coeff-Com: -0.190D-04-0.697D-02-0.279D-01 0.103D+01
 Coeff:     -0.190D-04-0.697D-02-0.279D-01 0.103D+01
 Gap=     0.459 Goal=   None    Shift=    0.000
 RMSDP=2.07D-05 MaxDP=6.20D-05 DE=-1.57D-05 OVMax= 0.00D+00

 Cycle   5  Pass 0  IDiag  1:
 E= -75.3221123751250     Delta-E=       -0.000000004599 Rises=F Damp=F AM=F Ri=F Fa=F
 DIIS: error= 1.25D-06 at cycle   5 NSaved=   5.
 NSaved= 5 IEnMin= 5 EnMin= -75.3221123751250     IErMin= 5 ErrMin= 1.25D-06
 ErrMax= 1.25D-06  0.00D+00 EMaxC= 1.00D-01 BMatC= 3.76D-12 BMatP= 7.52D-10
 Rises=F IDIUse=1 WtCom= 1.00D+00 WtEn= 0.00D+00
 Coeff-Com:  0.238D-04-0.573D-03-0.164D-02 0.275D-01 0.975D+00
 Coeff:      0.238D-04-0.573D-03-0.164D-02 0.275D-01 0.975D+00
 Gap=     0.459 Goal=   None    Shift=    0.000
 RMSDP=5.79D-07 MaxDP=2.49D-06 DE=-4.60D-09 OVMax= 0.00D+00

 Initial convergence to 1.0D-05 achieved.  Increase integral accuracy.
 Cycle   6  Pass 1  IDiag  1:
 E= -75.3221122371768     Delta-E=        0.000000137948 Rises=F Damp=F AM=F Ri=F Fa=F
 DIIS: error= 7.81D-09 at cycle   1 NSaved=   1.
 NSaved= 1 IEnMin= 1 EnMin= -75.3221122371768     IErMin= 1 ErrMin= 7.81D-09
 ErrMax= 7.81D-09  0.00D+00 EMaxC= 1.00D-01 BMatC= 2.43D-16 BMatP= 2.43D-16
 Rises=F IDIUse=1 WtCom= 1.00D+00 WtEn= 0.00D+00
 Coeff-Com:  0.100D+01
 Coeff:      0.100D+01
 Gap=     0.459 Goal=   None    Shift=    0.000
 RMSDP=5.79D-07 MaxDP=2.49D-06 DE= 1.38D-07 OVMax= 0.00D+00

 Cycle   7  Pass 1  IDiag  1:
 E= -75.3221122371767     Delta-E=        0.000000000000 Rises=F Damp=F AM=F Ri=F Fa=F
 DIIS: error= 9.73D-10 at cycle   2 NSaved=   2.
 NSaved= 2 IEnMin= 1 EnMin= -75.3221122371768     IErMin= 2 ErrMin= 9.73D-10
 ErrMax= 9.73D-10  0.00D+00 EMaxC= 1.00D-01 BMatC= 5.96D-18 BMatP= 2.43D-16
 Rises=F IDIUse=1 WtCom= 1.00D+00 WtEn= 0.00D+00
 Coeff-Com:  0.840D-02 0.992D+00
 Coeff:      0.840D-02 0.992D+00
 Gap=     0.459 Goal=   None    Shift=    0.000
 RMSDP=1.58D-09 MaxDP=5.96D-09 DE= 5.68D-14 OVMax= 0.00D+00

 SCF Done:  E(RB3LYP) =  -75.3221122372     A.U. after    7 cycles
            NFock=  7  Conv=0.16D-08     -V/T= 2.0112
 KE=          74.486244 PE=        -195.791932 EE=          37.347776
 Leave Link  502 at Wed Sep  3 18:22:39 2025, MaxMem= 12348030976 cpu:               4.8 elap:               0.1
 (Enter /home/hhratchian/gaussian/gdv-20250101-j30+/gdv/l508.exe)
 QCSCF skips out because SCF is already converged.
 Leave Link  508 at Wed Sep  3 18:22:39 2025, MaxMem= 12348030976 cpu:               0.1 elap:               0.0
 (Enter /home/hhratchian/gaussian/gdv-20250101-j30+/gdv/l701.exe)
 ... and contract with generalized density number  0.
 Compute integral first derivatives.
 Leave Link  701 at Wed Sep  3 18:22:39 2025, MaxMem= 12348030976 cpu:               2.3 elap:               0.1
 (Enter /home/hhratchian/gaussian/gdv-20250101-j30+/gdv/l702.exe)
 L702 exits ... SP integral derivatives will be done elsewhere.
 Leave Link  702 at Wed Sep  3 18:22:39 2025, MaxMem= 12348030976 cpu:               0.1 elap:               0.0
 (Enter /home/hhratchian/gaussian/gdv-20250101-j30+/gdv/l703.exe)
 Integral derivatives from FoFJK, PRISM(SPDF).
 Compute integral first derivatives, UseDBF=F ICtDFT=           0.
 Calling FoFJK, ICntrl=      2127 FMM=F ISym2X=1 I1Cent= 0 IOpClX= 0 NMat=1 NMatS=1 NMatT=0.
 FoFJK:  IHMeth= 1 ICntrl=    2127 DoSepK=F KAlg= 0 I1Cent=           0 FoldK=F
 IRaf=         0 NMat=       1 IRICut=       1 DoRegI=T DoRafI=F ISym2E= 1 IDoP0=0 IntGTp=1.
 FoFCou: FMM=F IPFlag=           0 FMFlag=      100000 FMFlg1=         800
         NFxFlg=           0 DoJE=F BraDBF=F KetDBF=F FulRan=T
         wScrn=  0.000000 ICntrl=      2127 IOpCl=  0 I1Cent=           0 NGrid=           0
         NMat0=    1 NMatS0=      1 NMatT0=    0 NMatD0=    1 NMtDS0=    0 NMtDT0=    0
 Petite list used in FoFCou.
 Leave Link  703 at Wed Sep  3 18:22:39 2025, MaxMem= 12348030976 cpu:               2.9 elap:               0.1
 (Enter /home/hhratchian/gaussian/gdv-20250101-j30+/gdv/l716.exe)
 Dipole        =-3.07141183D-17 0.00000000D+00-6.36583021D-01
 ***** Axes restored to original set *****
 -------------------------------------------------------------------
 Center     Atomic                   Forces (Hartrees/Bohr)
 Number     Number              X              Y              Z
 -------------------------------------------------------------------
      1        8           0.000000000   -0.000000000    0.005342592
      2        1           0.011541453    0.000000000   -0.002671296
      3        1          -0.011541453    0.000000000   -0.002671296
 -------------------------------------------------------------------
 Cartesian Forces:  Max     0.011541453 RMS     0.005861600
 Leave Link  716 at Wed Sep  3 18:22:39 2025, MaxMem= 12348030976 cpu:               0.1 elap:               0.0
 (Enter /home/hhratchian/gaussian/gdv-20250101-j30+/gdv/l103.exe)

 GradGradGradGradGradGradGradGradGradGradGradGradGradGradGradGradGradGrad
 Berny optimization.
 Using GEDIIS/GDIIS optimizer.
 FormGI is forming the generalized inverse of G from B-inverse, IUseBI=4.
 NTrRot=    -1 NTRed=     3 NAtoms=     3 NSkip=     0 NRank=     3 IsLin=F EigSml=6.8012D-01
 Internal  Forces:  Max     0.019039619 RMS     0.012233841
 Search for a local minimum.
 Step number   3 out of a maximum of   20
 All quantities printed in internal units (Hartrees-Bohrs-Radians)
 RMS Force = .12234D-01 SwitMx=.10000D-02 MixMth= 1
 Mixed Optimization -- RFO/linear search
 Update second derivatives using D2CorX and points    1    2    3
 DE= -1.58D-03 DEPred=-1.83D-03 R= 8.62D-01
 TightC=F SS=  1.41D+00  RLast= 1.57D-01 DXNew= 8.4853D-01 4.7058D-01
 Trust test= 8.62D-01 RLast= 1.57D-01 DXMaxT set to 5.05D-01
 The second derivative matrix:
                          R1        R2        A1
           R1           0.54922
           R2          -0.12603   0.54922
           A1          -0.00012  -0.00012   0.25318
 ITU=  1  1  0
 Use linear search instead of GDIIS.
     Eigenvalues ---    0.25318   0.42319   0.67525
 RFO step:  Lambda=-1.07572143D-03 EMin= 2.53181019D-01
 Quartic linear search produced a step of -0.27728.
 GrdOpt: GIC=T ITstSp=  0 NP=   3 DidLin=T DidDIS=F IDoGRo=0 IDoRot=0
         ISwap=1 XLin=-0.277 DXMaxT= 0.505
 Iteration  1 RMS(Cart)=  0.03084652 RMS(Int)=  0.00115099
 Iteration  2 RMS(Cart)=  0.00046294 RMS(Int)=  0.00000026
 Iteration  3 RMS(Cart)=  0.00000018 RMS(Int)=  0.00000000
 ClnCor:  largest displacement from symmetrization is 3.14D-16 for atom     3.
 Variable       Old X    -DE/DX   Delta X   Delta X   Delta X     New X
                                 (Linear)    (Quad)   (Total)
    R1        1.93224   0.00658  -0.01409   0.02964   0.01556   1.94780
    R2        1.93224   0.00658  -0.01409   0.02964   0.01556   1.94780
    A1        1.63190   0.01904   0.03866   0.03605   0.07472   1.70662
         Item               Value     Threshold  Converged?
 Maximum Force            0.019040     0.000450     NO 
 RMS     Force            0.012234     0.000300     NO 
 Maximum Displacement     0.060192     0.001800     NO 
 RMS     Displacement     0.053210     0.001200     NO 
 Predicted change in Energy=-8.183377D-04
 Lowest energy point so far.  Saving SCF results.
 GradGradGradGradGradGradGradGradGradGradGradGradGradGradGradGradGradGrad

 Leave Link  103 at Wed Sep  3 18:22:40 2025, MaxMem= 12348030976 cpu:               0.2 elap:               0.0
 (Enter /home/hhratchian/gaussian/gdv-20250101-j30+/gdv/l202.exe)
                          Input orientation:                          
 ---------------------------------------------------------------------
 Center     Atomic      Atomic             Coordinates (Angstroms)
 Number     Number       Type             X           Y           Z
 ---------------------------------------------------------------------
      1          8           0       -0.000000    0.000000   -0.115610
      2          1           0        0.776617    0.000000    0.562089
      3          1           0       -0.776617   -0.000000    0.562089
 ---------------------------------------------------------------------
                    Distance matrix (angstroms):
                    1          2          3
     1  O    0.000000
     2  H    1.030732   0.000000
     3  H    1.030732   1.553234   0.000000
 Stoichiometry    H2O
 Framework group  C2V[C2(O),SGV(H2)]
 Deg. of freedom     2
 Full point group                 C2V     NOp   4
 RotChk:  IX=0 Diff= 5.29D-16
 Largest Abelian subgroup         C2V     NOp   4
 Largest concise Abelian subgroup C2      NOp   2
                         Standard orientation:                         
 ---------------------------------------------------------------------
 Center     Atomic      Atomic             Coordinates (Angstroms)
 Number     Number       Type             X           Y           Z
 ---------------------------------------------------------------------
      1          8           0       -0.000000   -0.000000    0.135540
      2          1           0       -0.000000    0.776617   -0.542159
      3          1           0       -0.000000   -0.776617   -0.542159
 ---------------------------------------------------------------------
 Rotational constants (GHZ):         614.7160777         415.7076425         247.9971748
 Leave Link  202 at Wed Sep  3 18:22:40 2025, MaxMem= 12348030976 cpu:               0.3 elap:               0.0
 (Enter /home/hhratchian/gaussian/gdv-20250101-j30+/gdv/local/l301.exe)
 Basis read from rwf:  (5D, 7F)
 No pseudopotential information found on rwf file.
 There are     4 symmetry adapted cartesian basis functions of A1  symmetry.
 There are     0 symmetry adapted cartesian basis functions of A2  symmetry.
 There are     1 symmetry adapted cartesian basis functions of B1  symmetry.
 There are     2 symmetry adapted cartesian basis functions of B2  symmetry.
 There are     4 symmetry adapted basis functions of A1  symmetry.
 There are     0 symmetry adapted basis functions of A2  symmetry.
 There are     1 symmetry adapted basis functions of B1  symmetry.
 There are     2 symmetry adapted basis functions of B2  symmetry.
     7 basis functions,    21 primitive gaussians,     7 cartesian basis functions
     5 alpha electrons        5 beta electrons
       nuclear repulsion energy         8.5550806767 Hartrees.
 IExCor=      4002 DFT=T Ex+Corr=B3LYP ScaHFX=  0.200000
 ScaDFX=  0.800000  0.720000  1.000000  0.810000  1.000000  0.000000
 ScaDFX=  0.000000  0.000000  0.000000  0.000000  0.000000  0.000000
 Grid=SuperFine IRanWt=     -1 IRanGd=            0 ICorTp=0 IEDCtl=  2004
 NAtoms=    3 NActive=    3 NUniq=    2 SFac= 2.25D+00 NAtFMM=   60 NAOKFM=F Big=F
 Integral buffers will be    131072 words long.
 Raffenetti 2 integral format.
 Two-electron integral symmetry is turned on.
 No density basis found on file    724.
 Leave Link  301 at Wed Sep  3 18:22:40 2025, MaxMem= 12348030976 cpu:               0.2 elap:               0.1
 (Enter /home/hhratchian/gaussian/gdv-20250101-j30+/gdv/l302.exe)
 NPDir=0 NMtPBC=     1 NCelOv=     1 NCel=       1 NClECP=     1 NCelD=      1
         NCelK=      1 NCelE2=     1 NClLst=     1 CellRange=     0.0.
 One-electron integrals computed using PRISM.
 One-electron integral symmetry used in STVInt
 NBasis=     7 RedAO= T EigKep=  3.90D-01  NBF=     4     0     1     2
 NBsUse=     7 1.00D-06 EigRej= -1.00D+00 NBFU=     4     0     1     2
 Precomputing XC quadrature grid using
 IXCGrd=   9 Grid=SuperFine IRanWt=          -1 IRanGd=           0 AccXCQ= 0.00D+00.
 Generated NRdTot=       0 NPtTot=      186420 NUsed=           0 NTot=          64
 NSgBfM=     7     7     7     7     7 MxSgAt=     3 MxSgA2=     3 SizInc=   0.000
 NMBTot=     1252 MaxBatPerAtom=      123 MaxMicBPerAtom=      423 NBfPt=             1127214.
 Leave Link  302 at Wed Sep  3 18:22:40 2025, MaxMem= 12348030976 cpu:               2.2 elap:               0.1
 (Enter /home/hhratchian/gaussian/gdv-20250101-j30+/gdv/l303.exe)
 DipDrv:  MaxL=1.
 Leave Link  303 at Wed Sep  3 18:22:40 2025, MaxMem= 12348030976 cpu:               0.2 elap:               0.0
 (Enter /home/hhratchian/gaussian/gdv-20250101-j30+/gdv/l401.exe)
 Initial guess from the checkpoint file:  "H2O_B3LYP_STO-3G_q0_m1.chk"
 B after Tr=    -0.000000    0.000000    0.000000
         Rot=    1.000000    0.000000   -0.000000   -0.000000 Ang=   0.00 deg.
 AO Guess basis will be translated and rotated to current coordinates.
 JPrj=2 DoOrth=T DoCkMO=T.
 Initial guess orbital symmetries:
       Occupied  (A1) (A1) (B2) (A1) (B1)
       Virtual   (A1) (B2)
 The electronic state of the initial guess is 1-A1.
 Generating alternative initial guess.
 ExpMin= 1.69D-01 ExpMax= 1.31D+02 ExpMxC= 1.31D+02 IAcc=3 Grid=SuperFine AccDes= 0.00D+00
 Harris functional with IExCor= 4002 and Grid=SuperFine diagonalized for initial guess.
 HarFok:  IExCor=    4002 AccDes= 0.00D+00 Grid=SuperFine IDoV= 1 UseB2=F ITyADJ=14 ICtDFT=  3500011
 FoFCou: FMM=F IPFlag=           0 FMFlag=      100000 FMFlg1=           0
         NFxFlg=           0 DoJE=T BraDBF=F KetDBF=T FulRan=T
         wScrn=  0.000000 ICntrl=       500 IOpCl=  0 I1Cent=   200000004 NGrid=           0
         NMat0=    1 NMatS0=      1 NMatT0=    0 NMatD0=    1 NMtDS0=    0 NMtDT0=    0
 Petite list used in FoFCou.
 Harris En= -75.3704969550488    
 Leave Link  401 at Wed Sep  3 18:22:40 2025, MaxMem= 12348030976 cpu:               4.0 elap:               0.2
 (Enter /home/hhratchian/gaussian/gdv-20250101-j30+/gdv/local/l502.exe)
 Keep R1 ints in memory in symmetry-blocked form, NReq=47923544.
 FoFCou: FMM=F IPFlag=           0 FMFlag=           0 FMFlg1=           0
         NFxFlg=           0 DoJE=F BraDBF=F KetDBF=F FulRan=T
         wScrn=  0.000000 ICntrl=       600 IOpCl=  0 I1Cent=           0 NGrid=           0
         NMat0=    1 NMatS0=     28 NMatT0=    0 NMatD0=    1 NMtDS0=    0 NMtDT0=    0
 Petite list used in FoFCou.
 Closed shell SCF:
 Using DIIS extrapolation, IDIIS=  1040.
 NGot= 12348030976 LenX= 12348027978 LenY= 12348027096
 Requested convergence on RMS density matrix=1.00D-08 within  32 cycles.
 Requested convergence on MAX density matrix=1.00D-06.
 Requested convergence on             energy=1.00D-06.
 No special actions if energy rises.
 Integral accuracy reduced to 1.0D-05 until final iterations.
 
  Hrant - CycOpn.
 

 Cycle   1  Pass 0  IDiag  1:
 E= -75.3226727881991    
 DIIS: error= 1.84D-03 at cycle   1 NSaved=   1.
 NSaved= 1 IEnMin= 1 EnMin= -75.3226727881991     IErMin= 1 ErrMin= 1.84D-03
 ErrMax= 1.84D-03  0.00D+00 EMaxC= 1.00D-01 BMatC= 1.13D-05 BMatP= 1.13D-05
 Rises=F IDIUse=3 WtCom= 9.92D-01 WtEn= 7.88D-03
 Coeff-Com:  0.100D+01
 Coeff-En:   0.100D+01
 Coeff:      0.100D+01
 Gap=     0.447 Goal=   None    Shift=    0.000
 GapD=    0.447 DampG=2.000 DampE=1.000 DampFc=2.0000 IDamp=-1.
 RMSDP=2.27D-03 MaxDP=7.17D-03              OVMax= 0.00D+00

 Cycle   2  Pass 0  IDiag  1:
 E= -75.3227325520529     Delta-E=       -0.000059763854 Rises=F Damp=F AM=F Ri=F Fa=F
 DIIS: error= 3.95D-04 at cycle   2 NSaved=   2.
 NSaved= 2 IEnMin= 2 EnMin= -75.3227325520529     IErMin= 2 ErrMin= 3.95D-04
 ErrMax= 3.95D-04  0.00D+00 EMaxC= 1.00D-01 BMatC= 3.39D-07 BMatP= 1.13D-05
 Rises=F IDIUse=3 WtCom= 9.99D-01 WtEn= 7.86D-04
 Coeff-Com: -0.426D-01 0.104D+01
 Coeff-En:   0.000D+00 0.100D+01
 Coeff:     -0.426D-01 0.104D+01
 Gap=     0.446 Goal=   None    Shift=    0.000
 RMSDP=2.80D-04 MaxDP=1.21D-03 DE=-5.98D-05 OVMax= 0.00D+00

 Cycle   3  Pass 0  IDiag  1:
 E= -75.3227333275480     Delta-E=       -0.000000775495 Rises=F Damp=F AM=F Ri=F Fa=F
 DIIS: error= 2.12D-04 at cycle   3 NSaved=   3.
 NSaved= 3 IEnMin= 3 EnMin= -75.3227333275480     IErMin= 3 ErrMin= 2.12D-04
 ErrMax= 2.12D-04  0.00D+00 EMaxC= 1.00D-01 BMatC= 1.81D-07 BMatP= 3.39D-07
 Rises=F IDIUse=3 WtCom= 1.00D+00 WtEn= 3.08D-04
 Coeff-Com: -0.301D-01 0.450D+00 0.580D+00
 Coeff-En:   0.000D+00 0.596D-01 0.940D+00
 Coeff:     -0.301D-01 0.450D+00 0.580D+00
 Gap=     0.447 Goal=   None    Shift=    0.000
 RMSDP=1.30D-04 MaxDP=4.20D-04 DE=-7.75D-07 OVMax= 0.00D+00

 Cycle   4  Pass 0  IDiag  1:
 E= -75.3227338308606     Delta-E=       -0.000000503313 Rises=F Damp=F AM=F Ri=F Fa=F
 DIIS: error= 2.30D-05 at cycle   4 NSaved=   4.
 NSaved= 4 IEnMin= 4 EnMin= -75.3227338308606     IErMin= 4 ErrMin= 2.30D-05
 ErrMax= 2.30D-05  0.00D+00 EMaxC= 1.00D-01 BMatC= 1.56D-09 BMatP= 1.81D-07
 Rises=F IDIUse=1 WtCom= 1.00D+00 WtEn= 0.00D+00
 Coeff-Com: -0.242D-02-0.127D-01 0.699D-01 0.945D+00
 Coeff:     -0.242D-02-0.127D-01 0.699D-01 0.945D+00
 Gap=     0.446 Goal=   None    Shift=    0.000
 RMSDP=1.04D-05 MaxDP=4.27D-05 DE=-5.03D-07 OVMax= 0.00D+00

 Cycle   5  Pass 0  IDiag  1:
 E= -75.3227338351178     Delta-E=       -0.000000004257 Rises=F Damp=F AM=F Ri=F Fa=F
 DIIS: error= 7.35D-08 at cycle   5 NSaved=   5.
 NSaved= 5 IEnMin= 5 EnMin= -75.3227338351178     IErMin= 5 ErrMin= 7.35D-08
 ErrMax= 7.35D-08  0.00D+00 EMaxC= 1.00D-01 BMatC= 1.69D-14 BMatP= 1.56D-09
 Rises=F IDIUse=1 WtCom= 1.00D+00 WtEn= 0.00D+00
 Coeff-Com:  0.293D-04-0.532D-05-0.432D-03-0.819D-02 0.101D+01
 Coeff:      0.293D-04-0.532D-05-0.432D-03-0.819D-02 0.101D+01
 Gap=     0.446 Goal=   None    Shift=    0.000
 RMSDP=3.44D-08 MaxDP=1.25D-07 DE=-4.26D-09 OVMax= 0.00D+00

 Initial convergence to 1.0D-05 achieved.  Increase integral accuracy.
 Cycle   6  Pass 1  IDiag  1:
 E= -75.3227337616116     Delta-E=        0.000000073506 Rises=F Damp=F AM=F Ri=F Fa=F
 DIIS: error= 1.19D-08 at cycle   1 NSaved=   1.
 NSaved= 1 IEnMin= 1 EnMin= -75.3227337616116     IErMin= 1 ErrMin= 1.19D-08
 ErrMax= 1.19D-08  0.00D+00 EMaxC= 1.00D-01 BMatC= 4.58D-16 BMatP= 4.58D-16
 Rises=F IDIUse=1 WtCom= 1.00D+00 WtEn= 0.00D+00
 Coeff-Com:  0.100D+01
 Coeff:      0.100D+01
 Gap=     0.446 Goal=   None    Shift=    0.000
 RMSDP=3.44D-08 MaxDP=1.25D-07 DE= 7.35D-08 OVMax= 0.00D+00

 Cycle   7  Pass 1  IDiag  1:
 E= -75.3227337616116     Delta-E=        0.000000000000 Rises=F Damp=F AM=F Ri=F Fa=F
 DIIS: error= 4.62D-10 at cycle   2 NSaved=   2.
 NSaved= 2 IEnMin= 1 EnMin= -75.3227337616116     IErMin= 2 ErrMin= 4.62D-10
 ErrMax= 4.62D-10  0.00D+00 EMaxC= 1.00D-01 BMatC= 1.10D-18 BMatP= 4.58D-16
 Rises=F IDIUse=1 WtCom= 1.00D+00 WtEn= 0.00D+00
 Coeff-Com: -0.828D-02 0.101D+01
 Coeff:     -0.828D-02 0.101D+01
 Gap=     0.446 Goal=   None    Shift=    0.000
 RMSDP=6.97D-10 MaxDP=2.70D-09 DE= 0.00D+00 OVMax= 0.00D+00

 SCF Done:  E(RB3LYP) =  -75.3227337616     A.U. after    7 cycles
            NFock=  7  Conv=0.70D-09     -V/T= 2.0115
 KE=          74.464952 PE=        -195.646639 EE=          37.303872
 Leave Link  502 at Wed Sep  3 18:22:40 2025, MaxMem= 12348030976 cpu:               5.1 elap:               0.2
 (Enter /home/hhratchian/gaussian/gdv-20250101-j30+/gdv/l508.exe)
 QCSCF skips out because SCF is already converged.
 Leave Link  508 at Wed Sep  3 18:22:40 2025, MaxMem= 12348030976 cpu:               0.1 elap:               0.0
 (Enter /home/hhratchian/gaussian/gdv-20250101-j30+/gdv/l701.exe)
 ... and contract with generalized density number  0.
 Compute integral first derivatives.
 Leave Link  701 at Wed Sep  3 18:22:40 2025, MaxMem= 12348030976 cpu:               2.1 elap:               0.1
 (Enter /home/hhratchian/gaussian/gdv-20250101-j30+/gdv/l702.exe)
 L702 exits ... SP integral derivatives will be done elsewhere.
 Leave Link  702 at Wed Sep  3 18:22:40 2025, MaxMem= 12348030976 cpu:               0.2 elap:               0.0
 (Enter /home/hhratchian/gaussian/gdv-20250101-j30+/gdv/l703.exe)
 Integral derivatives from FoFJK, PRISM(SPDF).
 Compute integral first derivatives, UseDBF=F ICtDFT=           0.
 Calling FoFJK, ICntrl=      2127 FMM=F ISym2X=1 I1Cent= 0 IOpClX= 0 NMat=1 NMatS=1 NMatT=0.
 FoFJK:  IHMeth= 1 ICntrl=    2127 DoSepK=F KAlg= 0 I1Cent=           0 FoldK=F
 IRaf=         0 NMat=       1 IRICut=       1 DoRegI=T DoRafI=F ISym2E= 1 IDoP0=0 IntGTp=1.
 FoFCou: FMM=F IPFlag=           0 FMFlag=      100000 FMFlg1=         800
         NFxFlg=           0 DoJE=F BraDBF=F KetDBF=F FulRan=T
         wScrn=  0.000000 ICntrl=      2127 IOpCl=  0 I1Cent=           0 NGrid=           0
         NMat0=    1 NMatS0=      1 NMatT0=    0 NMatD0=    1 NMtDS0=    0 NMtDT0=    0
 Petite list used in FoFCou.
 Leave Link  703 at Wed Sep  3 18:22:40 2025, MaxMem= 12348030976 cpu:               3.0 elap:               0.1
 (Enter /home/hhratchian/gaussian/gdv-20250101-j30+/gdv/l716.exe)
 Dipole        =-3.18883425D-17 0.00000000D+00-6.23474591D-01
 ***** Axes restored to original set *****
 -------------------------------------------------------------------
 Center     Atomic                   Forces (Hartrees/Bohr)
 Number     Number              X              Y              Z
 -------------------------------------------------------------------
      1        8          -0.000000000   -0.000000000    0.002051361
      2        1          -0.003771903    0.000000000   -0.001025680
      3        1           0.003771903    0.000000000   -0.001025680
 -------------------------------------------------------------------
 Cartesian Forces:  Max     0.003771903 RMS     0.001965441
 Leave Link  716 at Wed Sep  3 18:22:40 2025, MaxMem= 12348030976 cpu:               0.1 elap:               0.0
 (Enter /home/hhratchian/gaussian/gdv-20250101-j30+/gdv/l103.exe)

 GradGradGradGradGradGradGradGradGradGradGradGradGradGradGradGradGradGrad
 Berny optimization.
 Using GEDIIS/GDIIS optimizer.
 FormGI is forming the generalized inverse of G from B-inverse, IUseBI=4.
 NTrRot=    -1 NTRed=     3 NAtoms=     3 NSkip=     0 NRank=     3 IsLin=F EigSml=6.8645D-01
 Internal  Forces:  Max     0.003516361 RMS     0.003453835
 Search for a local minimum.
 Step number   4 out of a maximum of   20
 All quantities printed in internal units (Hartrees-Bohrs-Radians)
 RMS Force = .34538D-02 SwitMx=.10000D-02 MixMth= 1
 Mixed Optimization -- RFO/linear search
 Update second derivatives using D2CorX and points    1    2    3    4
 DE= -6.22D-04 DEPred=-8.18D-04 R= 7.59D-01
 TightC=F SS=  1.41D+00  RLast= 7.79D-02 DXNew= 8.4853D-01 2.3368D-01
 Trust test= 7.59D-01 RLast= 7.79D-02 DXMaxT set to 5.05D-01
 The second derivative matrix:
                          R1        R2        A1
           R1           0.58633
           R2          -0.08892   0.58633
           A1           0.03149   0.03149   0.28620
 ITU=  1  1  1  0
 Use linear search instead of GDIIS.
     Eigenvalues ---    0.27720   0.50642   0.67525
 RFO step:  Lambda=-1.40740899D-05 EMin= 2.77195588D-01
 Quartic linear search produced a step of -0.18629.
 GrdOpt: GIC=T ITstSp=  0 NP=   4 DidLin=T DidDIS=F IDoGRo=0 IDoRot=0
         ISwap=1 XLin=-0.186 DXMaxT= 0.505
 Iteration  1 RMS(Cart)=  0.00561184 RMS(Int)=  0.00003071
 Iteration  2 RMS(Cart)=  0.00001198 RMS(Int)=  0.00000000
 Iteration  3 RMS(Cart)=  0.00000000 RMS(Int)=  0.00000000
 ClnCor:  largest displacement from symmetrization is 3.14D-16 for atom     3.
 Variable       Old X    -DE/DX   Delta X   Delta X   Delta X     New X
                                 (Linear)    (Quad)   (Total)
    R1        1.94780  -0.00352  -0.00290  -0.00355  -0.00645   1.94135
    R2        1.94780  -0.00352  -0.00290  -0.00355  -0.00645   1.94135
    A1        1.70662  -0.00333  -0.01392   0.00321  -0.01071   1.69591
         Item               Value     Threshold  Converged?
 Maximum Force            0.003516     0.000450     NO 
 RMS     Force            0.003454     0.000300     NO 
 Maximum Displacement     0.011719     0.001800     NO 
 RMS     Displacement     0.009716     0.001200     NO 
 Predicted change in Energy=-3.951533D-05
 Lowest energy point so far.  Saving SCF results.
 GradGradGradGradGradGradGradGradGradGradGradGradGradGradGradGradGradGrad

 Leave Link  103 at Wed Sep  3 18:22:41 2025, MaxMem= 12348030976 cpu:               0.2 elap:               0.0
 (Enter /home/hhratchian/gaussian/gdv-20250101-j30+/gdv/l202.exe)
                          Input orientation:                          
 ---------------------------------------------------------------------
 Center     Atomic      Atomic             Coordinates (Angstroms)
 Number     Number       Type             X           Y           Z
 ---------------------------------------------------------------------
      1          8           0       -0.000000    0.000000   -0.116870
      2          1           0        0.770416    0.000000    0.562719
      3          1           0       -0.770416   -0.000000    0.562719
 ---------------------------------------------------------------------
                    Distance matrix (angstroms):
                    1          2          3
     1  O    0.000000
     2  H    1.027318   0.000000
     3  H    1.027318   1.540831   0.000000
 Stoichiometry    H2O
 Framework group  C2V[C2(O),SGV(H2)]
 Deg. of freedom     2
 Full point group                 C2V     NOp   4
 RotChk:  IX=0 Diff= 5.70D-16
 Largest Abelian subgroup         C2V     NOp   4
 Largest concise Abelian subgroup C2      NOp   2
                         Standard orientation:                         
 ---------------------------------------------------------------------
 Center     Atomic      Atomic             Coordinates (Angstroms)
 Number     Number       Type             X           Y           Z
 ---------------------------------------------------------------------
      1          8           0       -0.000000    0.000000    0.135918
      2          1           0        0.000000    0.770416   -0.543672
      3          1           0       -0.000000   -0.770416   -0.543672
 ---------------------------------------------------------------------
 Rotational constants (GHZ):         611.2995480         422.4272040         249.8044656
 Leave Link  202 at Wed Sep  3 18:22:41 2025, MaxMem= 12348030976 cpu:               0.3 elap:               0.0
 (Enter /home/hhratchian/gaussian/gdv-20250101-j30+/gdv/local/l301.exe)
 Basis read from rwf:  (5D, 7F)
 No pseudopotential information found on rwf file.
 There are     4 symmetry adapted cartesian basis functions of A1  symmetry.
 There are     0 symmetry adapted cartesian basis functions of A2  symmetry.
 There are     1 symmetry adapted cartesian basis functions of B1  symmetry.
 There are     2 symmetry adapted cartesian basis functions of B2  symmetry.
 There are     4 symmetry adapted basis functions of A1  symmetry.
 There are     0 symmetry adapted basis functions of A2  symmetry.
 There are     1 symmetry adapted basis functions of B1  symmetry.
 There are     2 symmetry adapted basis functions of B2  symmetry.
     7 basis functions,    21 primitive gaussians,     7 cartesian basis functions
     5 alpha electrons        5 beta electrons
       nuclear repulsion energy         8.5851252991 Hartrees.
 IExCor=      4002 DFT=T Ex+Corr=B3LYP ScaHFX=  0.200000
 ScaDFX=  0.800000  0.720000  1.000000  0.810000  1.000000  0.000000
 ScaDFX=  0.000000  0.000000  0.000000  0.000000  0.000000  0.000000
 Grid=SuperFine IRanWt=     -1 IRanGd=            0 ICorTp=0 IEDCtl=  2004
 NAtoms=    3 NActive=    3 NUniq=    2 SFac= 2.25D+00 NAtFMM=   60 NAOKFM=F Big=F
 Integral buffers will be    131072 words long.
 Raffenetti 2 integral format.
 Two-electron integral symmetry is turned on.
 No density basis found on file    724.
 Leave Link  301 at Wed Sep  3 18:22:41 2025, MaxMem= 12348030976 cpu:               0.2 elap:               0.1
 (Enter /home/hhratchian/gaussian/gdv-20250101-j30+/gdv/l302.exe)
 NPDir=0 NMtPBC=     1 NCelOv=     1 NCel=       1 NClECP=     1 NCelD=      1
         NCelK=      1 NCelE2=     1 NClLst=     1 CellRange=     0.0.
 One-electron integrals computed using PRISM.
 One-electron integral symmetry used in STVInt
 NBasis=     7 RedAO= T EigKep=  3.88D-01  NBF=     4     0     1     2
 NBsUse=     7 1.00D-06 EigRej= -1.00D+00 NBFU=     4     0     1     2
 Precomputing XC quadrature grid using
 IXCGrd=   9 Grid=SuperFine IRanWt=          -1 IRanGd=           0 AccXCQ= 0.00D+00.
 Generated NRdTot=       0 NPtTot=      186413 NUsed=           0 NTot=          64
 NSgBfM=     7     7     7     7     7 MxSgAt=     3 MxSgA2=     3 SizInc=   0.000
 NMBTot=     1273 MaxBatPerAtom=      123 MaxMicBPerAtom=      427 NBfPt=             1126989.
 Leave Link  302 at Wed Sep  3 18:22:41 2025, MaxMem= 12348030976 cpu:               2.2 elap:               0.1
 (Enter /home/hhratchian/gaussian/gdv-20250101-j30+/gdv/l303.exe)
 DipDrv:  MaxL=1.
 Leave Link  303 at Wed Sep  3 18:22:41 2025, MaxMem= 12348030976 cpu:               0.2 elap:               0.0
 (Enter /home/hhratchian/gaussian/gdv-20250101-j30+/gdv/l401.exe)
 Initial guess from the checkpoint file:  "H2O_B3LYP_STO-3G_q0_m1.chk"
 B after Tr=     0.000000   -0.000000    0.000000
         Rot=    1.000000    0.000000    0.000000    0.000000 Ang=   0.00 deg.
 AO Guess basis will be translated and rotated to current coordinates.
 JPrj=2 DoOrth=T DoCkMO=T.
 Initial guess orbital symmetries:
       Occupied  (A1) (A1) (B2) (A1) (B1)
       Virtual   (A1) (B2)
 The electronic state of the initial guess is 1-A1.
 Leave Link  401 at Wed Sep  3 18:22:41 2025, MaxMem= 12348030976 cpu:               0.3 elap:               0.1
 (Enter /home/hhratchian/gaussian/gdv-20250101-j30+/gdv/local/l502.exe)
 Keep R1 ints in memory in symmetry-blocked form, NReq=47923544.
 FoFCou: FMM=F IPFlag=           0 FMFlag=           0 FMFlg1=           0
         NFxFlg=           0 DoJE=F BraDBF=F KetDBF=F FulRan=T
         wScrn=  0.000000 ICntrl=       600 IOpCl=  0 I1Cent=           0 NGrid=           0
         NMat0=    1 NMatS0=     28 NMatT0=    0 NMatD0=    1 NMtDS0=    0 NMtDT0=    0
 Petite list used in FoFCou.
 Closed shell SCF:
 Using DIIS extrapolation, IDIIS=  1040.
 NGot= 12348030976 LenX= 12348027978 LenY= 12348027096
 Requested convergence on RMS density matrix=1.00D-08 within  32 cycles.
 Requested convergence on MAX density matrix=1.00D-06.
 Requested convergence on             energy=1.00D-06.
 No special actions if energy rises.
 
  Hrant - CycOpn.
 

 Cycle   1  Pass 1  IDiag  1:
 E= -75.3227743233483    
 DIIS: error= 3.06D-04 at cycle   1 NSaved=   1.
 NSaved= 1 IEnMin= 1 EnMin= -75.3227743233483     IErMin= 1 ErrMin= 3.06D-04
 ErrMax= 3.06D-04  0.00D+00 EMaxC= 1.00D-01 BMatC= 6.68D-07 BMatP= 6.68D-07
 Rises=F IDIUse=3 WtCom= 9.99D-01 WtEn= 5.34D-04
 Coeff-Com:  0.100D+01
 Coeff-En:   0.100D+01
 Coeff:      0.100D+01
 Gap=     0.450 Goal=   None    Shift=    0.000
 RMSDP=1.87D-04 MaxDP=7.13D-04              OVMax= 0.00D+00

 Cycle   2  Pass 1  IDiag  1:
 E= -75.3227747067109     Delta-E=       -0.000000383363 Rises=F Damp=F AM=F Ri=F Fa=F
 DIIS: error= 1.64D-04 at cycle   2 NSaved=   2.
 NSaved= 2 IEnMin= 2 EnMin= -75.3227747067109     IErMin= 2 ErrMin= 1.64D-04
 ErrMax= 1.64D-04  0.00D+00 EMaxC= 1.00D-01 BMatC= 1.11D-07 BMatP= 6.68D-07
 Rises=F IDIUse=3 WtCom= 1.00D+00 WtEn= 2.10D-04
 Coeff-Com:  0.230D+00 0.770D+00
 Coeff-En:   0.192D+00 0.808D+00
 Coeff:      0.230D+00 0.770D+00
 Gap=     0.450 Goal=   None    Shift=    0.000
 RMSDP=1.33D-04 MaxDP=4.24D-04 DE=-3.83D-07 OVMax= 0.00D+00

 Cycle   3  Pass 1  IDiag  1:
 E= -75.3227749459214     Delta-E=       -0.000000239210 Rises=F Damp=F AM=F Ri=F Fa=F
 DIIS: error= 8.38D-05 at cycle   3 NSaved=   3.
 NSaved= 3 IEnMin= 3 EnMin= -75.3227749459214     IErMin= 3 ErrMin= 8.38D-05
 ErrMax= 8.38D-05  0.00D+00 EMaxC= 1.00D-01 BMatC= 2.43D-08 BMatP= 1.11D-07
 Rises=F IDIUse=1 WtCom= 1.00D+00 WtEn= 0.00D+00
 Coeff-Com: -0.907D-03 0.318D+00 0.683D+00
 Coeff:     -0.907D-03 0.318D+00 0.683D+00
 Gap=     0.450 Goal=   None    Shift=    0.000
 RMSDP=4.08D-05 MaxDP=1.34D-04 DE=-2.39D-07 OVMax= 0.00D+00

 Cycle   4  Pass 1  IDiag  1:
 E= -75.3227750115063     Delta-E=       -0.000000065585 Rises=F Damp=F AM=F Ri=F Fa=F
 DIIS: error= 8.29D-07 at cycle   4 NSaved=   4.
 NSaved= 4 IEnMin= 4 EnMin= -75.3227750115063     IErMin= 4 ErrMin= 8.29D-07
 ErrMax= 8.29D-07  0.00D+00 EMaxC= 1.00D-01 BMatC= 1.87D-12 BMatP= 2.43D-08
 Rises=F IDIUse=1 WtCom= 1.00D+00 WtEn= 0.00D+00
 Coeff-Com: -0.446D-03-0.329D-01-0.746D-01 0.111D+01
 Coeff:     -0.446D-03-0.329D-01-0.746D-01 0.111D+01
 Gap=     0.450 Goal=   None    Shift=    0.000
 RMSDP=8.63D-07 MaxDP=2.26D-06 DE=-6.56D-08 OVMax= 0.00D+00

 Cycle   5  Pass 1  IDiag  1:
 E= -75.3227750115164     Delta-E=       -0.000000000010 Rises=F Damp=F AM=F Ri=F Fa=F
 DIIS: error= 6.27D-08 at cycle   5 NSaved=   5.
 NSaved= 5 IEnMin= 5 EnMin= -75.3227750115164     IErMin= 5 ErrMin= 6.27D-08
 ErrMax= 6.27D-08  0.00D+00 EMaxC= 1.00D-01 BMatC= 1.04D-14 BMatP= 1.87D-12
 Rises=F IDIUse=1 WtCom= 1.00D+00 WtEn= 0.00D+00
 Coeff-Com:  0.166D-04-0.115D-02-0.318D-02 0.152D-01 0.989D+00
 Coeff:      0.166D-04-0.115D-02-0.318D-02 0.152D-01 0.989D+00
 Gap=     0.450 Goal=   None    Shift=    0.000
 RMSDP=2.78D-08 MaxDP=1.17D-07 DE=-1.01D-11 OVMax= 0.00D+00

 Cycle   6  Pass 1  IDiag  1:
 E= -75.3227750115164     Delta-E=       -0.000000000000 Rises=F Damp=F AM=F Ri=F Fa=F
 DIIS: error= 1.85D-12 at cycle   6 NSaved=   6.
 NSaved= 6 IEnMin= 6 EnMin= -75.3227750115164     IErMin= 6 ErrMin= 1.85D-12
 ErrMax= 1.85D-12  0.00D+00 EMaxC= 1.00D-01 BMatC= 1.20D-23 BMatP= 1.04D-14
 Rises=F IDIUse=1 WtCom= 1.00D+00 WtEn= 0.00D+00
 Coeff-Com: -0.413D-08-0.111D-07 0.411D-07 0.520D-05-0.127D-03 0.100D+01
 Coeff:     -0.413D-08-0.111D-07 0.411D-07 0.520D-05-0.127D-03 0.100D+01
 Gap=     0.450 Goal=   None    Shift=    0.000
 Skip diagonalization as Alpha Fock matrix is already diagonal.
 RMSDP=1.97D-31 MaxDP=8.78D-31 DE=-7.11D-14 OVMax= 0.00D+00

 SCF Done:  E(RB3LYP) =  -75.3227750115     A.U. after    6 cycles
            NFock=  6  Conv=0.20D-30     -V/T= 2.0114
 KE=          74.471481 PE=        -195.704553 EE=          37.325172
 Leave Link  502 at Wed Sep  3 18:22:41 2025, MaxMem= 12348030976 cpu:               4.4 elap:               0.1
 (Enter /home/hhratchian/gaussian/gdv-20250101-j30+/gdv/l508.exe)
 QCSCF skips out because SCF is already converged.
 Leave Link  508 at Wed Sep  3 18:22:41 2025, MaxMem= 12348030976 cpu:               0.1 elap:               0.0
 (Enter /home/hhratchian/gaussian/gdv-20250101-j30+/gdv/l701.exe)
 ... and contract with generalized density number  0.
 Compute integral first derivatives.
 Leave Link  701 at Wed Sep  3 18:22:41 2025, MaxMem= 12348030976 cpu:               2.3 elap:               0.1
 (Enter /home/hhratchian/gaussian/gdv-20250101-j30+/gdv/l702.exe)
 L702 exits ... SP integral derivatives will be done elsewhere.
 Leave Link  702 at Wed Sep  3 18:22:41 2025, MaxMem= 12348030976 cpu:               0.2 elap:               0.0
 (Enter /home/hhratchian/gaussian/gdv-20250101-j30+/gdv/l703.exe)
 Integral derivatives from FoFJK, PRISM(SPDF).
 Compute integral first derivatives, UseDBF=F ICtDFT=           0.
 Calling FoFJK, ICntrl=      2127 FMM=F ISym2X=1 I1Cent= 0 IOpClX= 0 NMat=1 NMatS=1 NMatT=0.
 FoFJK:  IHMeth= 1 ICntrl=    2127 DoSepK=F KAlg= 0 I1Cent=           0 FoldK=F
 IRaf=         0 NMat=       1 IRICut=       1 DoRegI=T DoRafI=F ISym2E= 1 IDoP0=0 IntGTp=1.
 FoFCou: FMM=F IPFlag=           0 FMFlag=      100000 FMFlg1=         800
         NFxFlg=           0 DoJE=F BraDBF=F KetDBF=F FulRan=T
         wScrn=  0.000000 ICntrl=      2127 IOpCl=  0 I1Cent=           0 NGrid=           0
         NMat0=    1 NMatS0=      1 NMatT0=    0 NMatD0=    1 NMtDS0=    0 NMtDT0=    0
 Petite list used in FoFCou.
 Leave Link  703 at Wed Sep  3 18:22:41 2025, MaxMem= 12348030976 cpu:               3.0 elap:               0.1
 (Enter /home/hhratchian/gaussian/gdv-20250101-j30+/gdv/l716.exe)
 Dipole        =-3.18065146D-17 0.00000000D+00-6.26905014D-01
 ***** Axes restored to original set *****
 -------------------------------------------------------------------
 Center     Atomic                   Forces (Hartrees/Bohr)
 Number     Number              X              Y              Z
 -------------------------------------------------------------------
      1        8           0.000000000   -0.000000000    0.000238559
      2        1          -0.000088465    0.000000000   -0.000119279
      3        1           0.000088465    0.000000000   -0.000119279
 -------------------------------------------------------------------
 Cartesian Forces:  Max     0.000238559 RMS     0.000105944
 Leave Link  716 at Wed Sep  3 18:22:41 2025, MaxMem= 12348030976 cpu:               0.2 elap:               0.0
 (Enter /home/hhratchian/gaussian/gdv-20250101-j30+/gdv/l103.exe)

 GradGradGradGradGradGradGradGradGradGradGradGradGradGradGradGradGradGrad
 Berny optimization.
 Using GEDIIS/GDIIS optimizer.
 FormGI is forming the generalized inverse of G from B-inverse, IUseBI=4.
 NTrRot=    -1 NTRed=     3 NAtoms=     3 NSkip=     0 NRank=     3 IsLin=F EigSml=6.8766D-01
 Internal  Forces:  Max     0.000145248 RMS     0.000123557
 Search for a local minimum.
 Step number   5 out of a maximum of   20
 All quantities printed in internal units (Hartrees-Bohrs-Radians)
 RMS Force = .12356D-03 SwitMx=.10000D-02 MixMth= 2
 Mixed Optimization -- En-DIIS/RFO-DIIS
 Update second derivatives using D2CorX and points    2    3    4    5
 DE= -4.12D-05 DEPred=-3.95D-05 R= 1.04D+00
 TightC=F SS=  1.41D+00  RLast= 1.41D-02 DXNew= 8.4853D-01 4.2216D-02
 Trust test= 1.04D+00 RLast= 1.41D-02 DXMaxT set to 5.05D-01
 The second derivative matrix:
                          R1        R2        A1
           R1           0.57798
           R2          -0.09727   0.57798
           A1           0.02515   0.02515   0.28572
 ITU=  1  1  1  1
 Use linear search instead of GDIIS.
     Eigenvalues ---    0.27944   0.48699   0.67525
 RFO step:  Lambda=-8.90038872D-08 EMin= 2.79438264D-01
 Quartic linear search produced a step of  0.01528.
 GrdOpt: GIC=T ITstSp=  0 NP=   4 DidLin=T DidDIS=F IDoGRo=0 IDoRot=0
         ISwap=1 XLin= 0.015 DXMaxT= 0.505
 Iteration  1 RMS(Cart)=  0.00011399 RMS(Int)=  0.00000003
 Iteration  2 RMS(Cart)=  0.00000002 RMS(Int)=  0.00000000
 ClnCor:  largest displacement from symmetrization is 2.39D-16 for atom     1.
 Variable       Old X    -DE/DX   Delta X   Delta X   Delta X     New X
                                 (Linear)    (Quad)   (Total)
    R1        1.94135  -0.00015  -0.00010  -0.00022  -0.00032   1.94103
    R2        1.94135  -0.00015  -0.00010  -0.00022  -0.00032   1.94103
    A1        1.69591   0.00006  -0.00016   0.00043   0.00027   1.69618
         Item               Value     Threshold  Converged?
 Maximum Force            0.000145     0.000450     YES
 RMS     Force            0.000124     0.000300     YES
 Maximum Displacement     0.000269     0.001800     YES
 RMS     Displacement     0.000197     0.001200     YES
 Predicted change in Energy=-5.388649D-08
 Optimization completed.
    -- Stationary point found.
                           ----------------------------
                           !   Optimized Parameters   !
                           ! (Angstroms and Degrees)  !
 --------------------------                            --------------------------
 ! Name  Definition              Value          Derivative Info.                !
 --------------------------------------------------------------------------------
 ! R1    R(1,2)                  1.0273         -DE/DX =   -0.0001              !
 ! R2    R(1,3)                  1.0273         -DE/DX =   -0.0001              !
 ! A1    A(2,1,3)               97.1685         -DE/DX =    0.0001              !
 --------------------------------------------------------------------------------
 Lowest energy point so far.  Saving SCF results.
 Largest change from initial coordinates is atom    1       0.060 Angstoms.
 GradGradGradGradGradGradGradGradGradGradGradGradGradGradGradGradGradGrad

 Leave Link  103 at Wed Sep  3 18:22:41 2025, MaxMem= 12348030976 cpu:               0.2 elap:               0.0
 (Enter /home/hhratchian/gaussian/gdv-20250101-j30+/gdv/l202.exe)
                          Input orientation:                          
 ---------------------------------------------------------------------
 Center     Atomic      Atomic             Coordinates (Angstroms)
 Number     Number       Type             X           Y           Z
 ---------------------------------------------------------------------
      1          8           0       -0.000000    0.000000   -0.116870
      2          1           0        0.770416    0.000000    0.562719
      3          1           0       -0.770416   -0.000000    0.562719
 ---------------------------------------------------------------------
                    Distance matrix (angstroms):
                    1          2          3
     1  O    0.000000
     2  H    1.027318   0.000000
     3  H    1.027318   1.540831   0.000000
 Stoichiometry    H2O
 Framework group  C2V[C2(O),SGV(H2)]
 Deg. of freedom     2
 Full point group                 C2V     NOp   4
 RotChk:  IX=0 Diff= 5.65D-16
 Largest Abelian subgroup         C2V     NOp   4
 Largest concise Abelian subgroup C2      NOp   2
                         Standard orientation:                         
 ---------------------------------------------------------------------
 Center     Atomic      Atomic             Coordinates (Angstroms)
 Number     Number       Type             X           Y           Z
 ---------------------------------------------------------------------
      1          8           0        0.000000    0.000000    0.135918
      2          1           0       -0.000000    0.770416   -0.543672
      3          1           0       -0.000000   -0.770416   -0.543672
 ---------------------------------------------------------------------
 Rotational constants (GHZ):         611.2995480         422.4272040         249.8044656
 Leave Link  202 at Wed Sep  3 18:22:41 2025, MaxMem= 12348030976 cpu:               0.3 elap:               0.0
 (Enter /home/hhratchian/gaussian/gdv-20250101-j30+/gdv/l601.exe)
 Copying SCF densities to generalized density rwf, IOpCl= 0 IROHF=0.
 
 **********************************************************************
 
               Population analysis using the SCF Density.
 
 **********************************************************************
 
 Orbital symmetries:
       Occupied  (A1) (A1) (B2) (A1) (B1)
       Virtual   (A1) (B2)
 The electronic state is 1-A1.
 Alpha  occ. eigenvalues --      -18.85232      -0.91213      -0.40438      -0.25490      -0.14609
 Alpha virt. eigenvalues --        0.30409       0.38654
          Condensed to atoms (all electrons):
               1          2          3
     1  O    7.833117   0.232470   0.232470
     2  H    0.232470   0.656129  -0.037627
     3  H    0.232470  -0.037627   0.656129
 Mulliken charges:
               1
     1  O   -0.298056
     2  H    0.149028
     3  H    0.149028
 Sum of Mulliken charges=   0.00000
 Mulliken charges with hydrogens summed into heavy atoms:
               1
     1  O    0.000000
 Electronic spatial extent (au):  <R**2>=             18.7991
 Charge=             -0.0000 electrons
 Dipole moment (field-independent basis, Debye):
    X=             -0.0000    Y=             -0.0000    Z=             -1.5934  Tot=              1.5934
 Quadrupole moment (field-independent basis, Debye-Ang):
   XX=             -6.1631   YY=             -4.5856   ZZ=             -5.2856
   XY=              0.0000   XZ=              0.0000   YZ=             -0.0000
 Traceless Quadrupole moment (field-independent basis, Debye-Ang):
   XX=             -0.8184   YY=              0.7592   ZZ=              0.0592
   XY=              0.0000   XZ=              0.0000   YZ=             -0.0000
 Octapole moment (field-independent basis, Debye-Ang**2):
  XXX=              0.0000  YYY=             -0.0000  ZZZ=             -0.0663  XYY=             -0.0000
  XXY=             -0.0000  XXZ=              0.0572  XZZ=              0.0000  YZZ=              0.0000
  YYZ=             -0.4952  XYZ=             -0.0000
 Hexadecapole moment (field-independent basis, Debye-Ang**3):
 XXXX=             -3.3069 YYYY=             -7.0778 ZZZZ=             -5.5918 XXXY=             -0.0000
 XXXZ=             -0.0000 YYYX=             -0.0000 YYYZ=             -0.0000 ZZZX=             -0.0000
 ZZZY=             -0.0000 XXYY=             -1.8697 XXZZ=             -1.5381 YYZZ=             -1.8271
 XXYZ=              0.0000 YYXZ=              0.0000 ZZXY=             -0.0000
 N-N=           8.585125 E-N=        -195.704553  KE=          74.471481
 Symmetry A1   KE=          66.468914
 Symmetry A2   KE=           0.000000
 Symmetry B1   KE=           5.057462
 Symmetry B2   KE=           2.945105
 No NMR shielding tensors so no spin-rotation constants.
 Leave Link  601 at Wed Sep  3 18:22:42 2025, MaxMem= 12348030976 cpu:               2.4 elap:               0.1
 (Enter /home/hhratchian/gaussian/gdv-20250101-j30+/gdv/local/l9999.exe)
 Unable to Open any file for archive entry.
 1\1\GINC-NODE030\FOpt\RB3LYP\Gen\H2O1\AABOUTAKA\03-Sep-2025\0\\#p B3LY
 P guess=read chkbasis geom=allcheck Opt Freq int=superfinegrid scf=xqc
 \\H2O — B3LYP/STO-3G q=0 m=1 [1/3: Stability]\\0,1\O,0.,0.,-0.116870
 3695\H,0.7704156407,0.,0.5627191847\H,-0.7704156407,0.,0.5627191847\\V
 ersion=ES64L-GDVRevJ.30+\State=1-A1\HF=-75.322775\RMSD=1.974e-31\RMSF=
 1.059e-04\Dipole=0.,0.,0.626905\Quadrupole=0.5644519,-0.6084299,0.0439
 781,0.,0.,0.\PG=C02V [C2(O1),SGV(H2)]\\@
 The archive entry for this job was punched.


 QUANTUM MECHANICS IS BOHRING -- M.S. GORDON
 Leave Link 9999 at Wed Sep  3 18:22:42 2025, MaxMem= 12348030976 cpu:               0.2 elap:               0.0
 Job cpu time:       0 days  0 hours  1 minutes 30.1 seconds.
 Elapsed time:       0 days  0 hours  0 minutes  8.1 seconds.
 File lengths (MBytes):  RWF=     38 Int=      0 D2E=      0 Chk=     17 Scr=      2
 Normal termination of Gaussian DV at Wed Sep  3 18:22:42 2025.
 (Enter /home/hhratchian/gaussian/gdv-20250101-j30+/gdv/local/l1.exe)
 Link1:  Proceeding to internal job step number  2.
 ------------------------------------------------------------------
 #P Geom=AllCheck Guess=TCheck SCRF=Check GenChk RB3LYP/ChkBas Freq
 ------------------------------------------------------------------
 1/10=4,29=7,30=1,38=1,40=1/1,3;
 2/12=2/2;
 3/5=7,6=2,11=2,14=-4,25=1,30=1,67=1,70=2,71=2,74=-5,75=-7,82=7,116=1,140=1,187=7/1,2,3;
 4/5=101/1;
 5/5=2,8=3,13=1,38=6,98=1/2,8;
 8/6=4,10=90,11=11/1;
 11/6=1,8=1,9=11,15=111,16=1/1,2,10;
 10/6=1/2;
 6/7=2,8=2,9=2,10=2,28=1/1;
 7/8=1,10=1,25=1/1,2,3,16;
 1/10=4,30=1/3;
 99//99;
 Leave Link    1 at Wed Sep  3 18:22:42 2025, MaxMem= 12348030976 cpu:               0.1 elap:               0.0
 (Enter /home/hhratchian/gaussian/gdv-20250101-j30+/gdv/local/l101.exe)
 
  Hrant - IAPOps =                         0
  Hrant - IAPOp1 =                         0
  Hrant - IAPOp2 =                         0
  Hrant - DoAP   =   F
 
 Structure from the checkpoint file:  "H2O_B3LYP_STO-3G_q0_m1.chk"
 ---------------------------------------------
 H2O — B3LYP/STO-3G q=0 m=1 [1/3: Stability]
 ---------------------------------------------
 Charge =     0 Multiplicity =     1
 Redundant internal coordinates found in file.  (GICs).
 O,0,0.,0.,-0.1168703695
 H,0,0.7704156407,0.,0.5627191847
 H,0,-0.7704156407,0.,0.5627191847
 
 Recover connectivity data from disk.
 Reading GIC definitions from chk.
 Skipping GIC derivative info from chk, if any.
 No input coordinate modifications requested.
 Forming B-matrix definitions.
 Forming B-matrix derivative definitions.
 ITRead=  0  0  0
 MicOpt= -1 -1 -1
 NAtoms=      3 NQM=        3 NQMF=       0 NMMI=      0 NMMIF=      0
                NMic=       0 NMicF=      0.
                    Isotopes and Nuclear Properties:
 (Nuclear quadrupole moments (NQMom) in fm**2, nuclear magnetic moments (NMagM)
  in nuclear magnetons)

  Atom         1           2           3
 IAtWgt=          16           1           1
 AtmWgt=  15.9949146   1.0078250   1.0078250
 NucSpn=           0           1           1
 AtZEff=    5.600000    1.000000    1.000000
 NQMom=    0.0000000   0.0000000   0.0000000
 NMagM=    0.0000000   2.7928460   2.7928460
 AtZNuc=   8.0000000   1.0000000   1.0000000
 Leave Link  101 at Wed Sep  3 18:22:42 2025, MaxMem= 12348030976 cpu:               0.5 elap:               0.3
 (Enter /home/hhratchian/gaussian/gdv-20250101-j30+/gdv/l103.exe)

 GradGradGradGradGradGradGradGradGradGradGradGradGradGradGradGradGradGrad
 Berny optimization.
 Initialization pass.
                           ----------------------------
                           !    Initial Parameters    !
                           ! (Angstroms and Degrees)  !
 --------------------------                            --------------------------
 ! Name  Definition              Value          Derivative Info.                !
 --------------------------------------------------------------------------------
 ! R1    R(1,2)                  1.0273         calculate D2E/DX2 analytically  !
 ! R2    R(1,3)                  1.0273         calculate D2E/DX2 analytically  !
 ! A1    A(2,1,3)               97.1685         calculate D2E/DX2 analytically  !
 --------------------------------------------------------------------------------
 Trust Radius=3.00D-01 FncErr=1.00D-07 GrdErr=1.00D-07 EigMax=2.50D+02 EigMin=1.00D-04
 Number of steps in this run=      2 maximum allowed number of steps=      2.
 GradGradGradGradGradGradGradGradGradGradGradGradGradGradGradGradGradGrad

 Leave Link  103 at Wed Sep  3 18:22:42 2025, MaxMem= 12348030976 cpu:               0.1 elap:               0.0
 (Enter /home/hhratchian/gaussian/gdv-20250101-j30+/gdv/l202.exe)
                          Input orientation:                          
 ---------------------------------------------------------------------
 Center     Atomic      Atomic             Coordinates (Angstroms)
 Number     Number       Type             X           Y           Z
 ---------------------------------------------------------------------
      1          8           0       -0.000000    0.000000   -0.116870
      2          1           0        0.770416    0.000000    0.562719
      3          1           0       -0.770416   -0.000000    0.562719
 ---------------------------------------------------------------------
                    Distance matrix (angstroms):
                    1          2          3
     1  O    0.000000
     2  H    1.027318   0.000000
     3  H    1.027318   1.540831   0.000000
 Stoichiometry    H2O
 Framework group  C2V[C2(O),SGV(H2)]
 Deg. of freedom     2
 Full point group                 C2V     NOp   4
 RotChk:  IX=0 Diff= 5.72D-16
 Largest Abelian subgroup         C2V     NOp   4
 Largest concise Abelian subgroup C2      NOp   2
                         Standard orientation:                         
 ---------------------------------------------------------------------
 Center     Atomic      Atomic             Coordinates (Angstroms)
 Number     Number       Type             X           Y           Z
 ---------------------------------------------------------------------
      1          8           0       -0.000000    0.000000    0.135918
      2          1           0       -0.000000    0.770416   -0.543672
      3          1           0       -0.000000   -0.770416   -0.543672
 ---------------------------------------------------------------------
 Rotational constants (GHZ):         611.2995480         422.4272040         249.8044656
 Leave Link  202 at Wed Sep  3 18:22:42 2025, MaxMem= 12348030976 cpu:               0.3 elap:               0.0
 (Enter /home/hhratchian/gaussian/gdv-20250101-j30+/gdv/local/l301.exe)
 Basis read from chk: "H2O_B3LYP_STO-3G_q0_m1.chk" (5D, 7F)
 No pseudopotential information found on chk file.
 There are     4 symmetry adapted cartesian basis functions of A1  symmetry.
 There are     0 symmetry adapted cartesian basis functions of A2  symmetry.
 There are     1 symmetry adapted cartesian basis functions of B1  symmetry.
 There are     2 symmetry adapted cartesian basis functions of B2  symmetry.
 There are     4 symmetry adapted basis functions of A1  symmetry.
 There are     0 symmetry adapted basis functions of A2  symmetry.
 There are     1 symmetry adapted basis functions of B1  symmetry.
 There are     2 symmetry adapted basis functions of B2  symmetry.
     7 basis functions,    21 primitive gaussians,     7 cartesian basis functions
     5 alpha electrons        5 beta electrons
       nuclear repulsion energy         8.5851252991 Hartrees.
 IExCor=      4002 DFT=T Ex+Corr=B3LYP ScaHFX=  0.200000
 ScaDFX=  0.800000  0.720000  1.000000  0.810000  1.000000  0.000000
 ScaDFX=  0.000000  0.000000  0.000000  0.000000  0.000000  0.000000
 Grid=SuperFine IRanWt=     -1 IRanGd=            0 ICorTp=0 IEDCtl=  2004
 NAtoms=    3 NActive=    3 NUniq=    2 SFac= 2.25D+00 NAtFMM=   60 NAOKFM=F Big=F
 Integral buffers will be    131072 words long.
 Raffenetti 2 integral format.
 Two-electron integral symmetry is turned on.
 No density basis found on file 200724.
 Leave Link  301 at Wed Sep  3 18:22:42 2025, MaxMem= 12348030976 cpu:               0.2 elap:               0.1
 (Enter /home/hhratchian/gaussian/gdv-20250101-j30+/gdv/l302.exe)
 NPDir=0 NMtPBC=     1 NCelOv=     1 NCel=       1 NClECP=     1 NCelD=      1
         NCelK=      1 NCelE2=     1 NClLst=     1 CellRange=     0.0.
 One-electron integrals computed using PRISM.
 One-electron integral symmetry used in STVInt
 NBasis=     7 RedAO= T EigKep=  3.88D-01  NBF=     4     0     1     2
 NBsUse=     7 1.00D-06 EigRej= -1.00D+00 NBFU=     4     0     1     2
 Precomputing XC quadrature grid using
 IXCGrd=   9 Grid=SuperFine IRanWt=          -1 IRanGd=           0 AccXCQ= 0.00D+00.
 Generated NRdTot=       0 NPtTot=      186314 NUsed=           0 NTot=          64
 NSgBfM=     7     7     7     7     7 MxSgAt=     3 MxSgA2=     3 SizInc=   0.000
 NMBTot=     1248 MaxBatPerAtom=      123 MaxMicBPerAtom=      419 NBfPt=             1126849.
 Leave Link  302 at Wed Sep  3 18:22:42 2025, MaxMem= 12348030976 cpu:               2.3 elap:               0.1
 (Enter /home/hhratchian/gaussian/gdv-20250101-j30+/gdv/l303.exe)
 DipDrv:  MaxL=1.
 Leave Link  303 at Wed Sep  3 18:22:42 2025, MaxMem= 12348030976 cpu:               0.2 elap:               0.0
 (Enter /home/hhratchian/gaussian/gdv-20250101-j30+/gdv/l401.exe)
 Initial guess from the checkpoint file:  "H2O_B3LYP_STO-3G_q0_m1.chk"
 B after Tr=     0.000000    0.000000   -0.000000
         Rot=    1.000000    0.000000    0.000000   -0.000000 Ang=   0.00 deg.
 AO Guess basis will be translated and rotated to current coordinates.
 JPrj=2 DoOrth=T DoCkMO=T.
 Initial guess orbital symmetries:
       Occupied  (A1) (A1) (B2) (A1) (B1)
       Virtual   (A1) (B2)
 The electronic state of the initial guess is 1-A1.
 Leave Link  401 at Wed Sep  3 18:22:42 2025, MaxMem= 12348030976 cpu:               0.3 elap:               0.1
 (Enter /home/hhratchian/gaussian/gdv-20250101-j30+/gdv/local/l502.exe)
 Keep R1 ints in memory in symmetry-blocked form, NReq=47923544.
 FoFCou: FMM=F IPFlag=           0 FMFlag=           0 FMFlg1=           0
         NFxFlg=           0 DoJE=F BraDBF=F KetDBF=F FulRan=T
         wScrn=  0.000000 ICntrl=       600 IOpCl=  0 I1Cent=           0 NGrid=           0
         NMat0=    1 NMatS0=     28 NMatT0=    0 NMatD0=    1 NMtDS0=    0 NMtDT0=    0
 Petite list used in FoFCou.
 Closed shell SCF:
 Using DIIS extrapolation, IDIIS=  1040.
 NGot= 12348030976 LenX= 12348027978 LenY= 12348027096
 Requested convergence on RMS density matrix=1.00D-08 within  32 cycles.
 Requested convergence on MAX density matrix=1.00D-06.
 Requested convergence on             energy=1.00D-06.
 No special actions if energy rises.
 
  Hrant - CycOpn.
 

 Cycle   1  Pass 1  IDiag  1:
 E= -75.3227750115164    
 DIIS: error= 1.85D-12 at cycle   1 NSaved=   1.
 NSaved= 1 IEnMin= 1 EnMin= -75.3227750115164     IErMin= 1 ErrMin= 1.85D-12
 ErrMax= 1.85D-12  0.00D+00 EMaxC= 1.00D-01 BMatC= 1.20D-23 BMatP= 1.20D-23
 Rises=F IDIUse=1 WtCom= 1.00D+00 WtEn= 0.00D+00
 Coeff-Com:  0.100D+01
 Coeff:      0.100D+01
 Gap=     0.450 Goal=   None    Shift=    0.000
 Skip diagonalization as Alpha Fock matrix is already diagonal.
 RMSDP=1.76D-16 MaxDP=6.66D-16              OVMax= 0.00D+00

 SCF Done:  E(RB3LYP) =  -75.3227750115     A.U. after    1 cycles
            NFock=  1  Conv=0.18D-15     -V/T= 2.0114
 KE=          74.471481 PE=        -195.704553 EE=          37.325172
 Leave Link  502 at Wed Sep  3 18:22:42 2025, MaxMem= 12348030976 cpu:               2.5 elap:               0.1
 (Enter /home/hhratchian/gaussian/gdv-20250101-j30+/gdv/l508.exe)
 QCSCF skips out because SCF is already converged.
 Leave Link  508 at Wed Sep  3 18:22:42 2025, MaxMem= 12348030976 cpu:               0.1 elap:               0.0
 (Enter /home/hhratchian/gaussian/gdv-20250101-j30+/gdv/l801.exe)
 DoSCS=F DFT=T ScalE2(SS,OS)=  1.000000  1.000000
 Range of M.O.s used for correlation:     1     7
 NBasis=     7 NAE=     5 NBE=     5 NFC=     0 NFV=     0
 NROrb=      7 NOA=     5 NOB=     5 NVA=     2 NVB=     2
 Leave Link  801 at Wed Sep  3 18:22:42 2025, MaxMem= 12348030976 cpu:               0.2 elap:               0.0
 (Enter /home/hhratchian/gaussian/gdv-20250101-j30+/gdv/l1101.exe)
 Using compressed storage, NAtomX=     3.
 Will process      4 centers per pass.
 Leave Link 1101 at Wed Sep  3 18:22:43 2025, MaxMem= 12348030976 cpu:               2.0 elap:               0.1
 (Enter /home/hhratchian/gaussian/gdv-20250101-j30+/gdv/l1102.exe)
 Symmetrizing basis deriv contribution to polar:
 IMax=3 JMax=2 DiffMx= 0.00D+00
 Leave Link 1102 at Wed Sep  3 18:22:43 2025, MaxMem= 12348030976 cpu:               0.2 elap:               0.0
 (Enter /home/hhratchian/gaussian/gdv-20250101-j30+/gdv/l1110.exe)
 Forming Gx(P) for the SCF density, NAtomX=     3.
 Integral derivatives from FoFJK, PRISM(SPDF).
 Do as many integral derivatives as possible in FoFJK.
 G2DrvN: MDV=   12348030509.
 G2DrvN: will do     4 centers at a time, making    1 passes.
 Calling FoFCou, ICntrl=  3107 FMM=F I1Cent=   0 AccDes= 0.00D+00.
 FoFJK:  IHMeth= 1 ICntrl=    3107 DoSepK=F KAlg= 0 I1Cent=           0 FoldK=F
 IRaf=         0 NMat=       1 IRICut=       1 DoRegI=T DoRafI=F ISym2E= 1 IDoP0=0 IntGTp=1.
 FoFCou: FMM=F IPFlag=           0 FMFlag=      100000 FMFlg1=           0
         NFxFlg=           0 DoJE=F BraDBF=F KetDBF=F FulRan=T
         wScrn=  0.000000 ICntrl=      3107 IOpCl=  0 I1Cent=           0 NGrid=           0
         NMat0=    1 NMatS0=      1 NMatT0=    0 NMatD0=    1 NMtDS0=    0 NMtDT0=    0
 Petite list used in FoFCou.
 End of G2Drv FD prop file    721 does not exist.
 End of G2Drv FD prop file    722 does not exist.
 End of G2Drv FD prop file    788 does not exist.
 End of G2Drv FD prop file    804 does not exist.
 Leave Link 1110 at Wed Sep  3 18:22:43 2025, MaxMem= 12348030976 cpu:               3.2 elap:               0.1
 (Enter /home/hhratchian/gaussian/gdv-20250101-j30+/gdv/l1002.exe)
 Minotr:  Closed shell wavefunction.
          IDoAtm=111
          Direct CPHF calculation.
          Differentiating once with respect to electric field.
                with respect to dipole field.
          Differentiating once with respect to nuclear coordinates.
          Using symmetry in CPHF.
          Requested convergence is 1.0D-08 RMS, and 1.0D-07 maximum.
          Secondary convergence is 1.0D-12 RMS, and 1.0D-12 maximum.
          NewPWx=T KeepS1=F KeepF1=F KeepIn=T MapXYZ=F SortEE=F KeepMc=T.
         1476 words used for storage of precomputed grid.
 Keep R1 ints in memory in symmetry-blocked form, NReq=47567129.
 FoFCou: FMM=F IPFlag=           0 FMFlag=           0 FMFlg1=           0
         NFxFlg=           0 DoJE=F BraDBF=F KetDBF=F FulRan=T
         wScrn=  0.000000 ICntrl=       600 IOpCl=  0 I1Cent=           0 NGrid=           0
         NMat0=    1 NMatS0=     28 NMatT0=    0 NMatD0=    1 NMtDS0=    0 NMtDT0=    0
 Petite list used in FoFCou.
          MDV=   12348030976 using Grid=Fine.
          Solving linear equations simultaneously, MaxMat=       0.
          There are     9 degrees of freedom in the 1st order CPHF.  IDoFFX=4 NUNeed=     9.
      8 vectors produced by pass  0 Test12= 1.11D-16 1.11D-08 XBig12= 2.62D+00 1.14D+00.
 AX will form     8 AO Fock derivatives at one time.
      2 vectors produced by pass  1 Test12= 1.11D-16 1.11D-08 XBig12= 2.06D-03 4.42D-02.
 InvSVY:  IOpt=1 It=  1 EMax= 4.16D-17
 Solved reduced A of dimension    10 with     9 vectors.
 FullF1:  Do perturbations      1 to       9.
 Isotropic polarizability for W=    0.000000        2.91 Bohr**3.
 End of Minotr FD prop file    721 does not exist.
 End of Minotr FD prop file    722 does not exist.
 End of Minotr FD prop file    788 does not exist.
 End of Minotr FD prop file    804 does not exist.
 Leave Link 1002 at Wed Sep  3 18:22:44 2025, MaxMem= 12348030976 cpu:              78.0 elap:               1.5
 (Enter /home/hhratchian/gaussian/gdv-20250101-j30+/gdv/l601.exe)
 Copying SCF densities to generalized density rwf, IOpCl= 0 IROHF=0.
 
 **********************************************************************
 
               Population analysis using the SCF Density.
 
 **********************************************************************
 
 Orbital symmetries:
       Occupied  (A1) (A1) (B2) (A1) (B1)
       Virtual   (A1) (B2)
 The electronic state is 1-A1.
 Alpha  occ. eigenvalues --      -18.85232      -0.91213      -0.40438      -0.25490      -0.14609
 Alpha virt. eigenvalues --        0.30409       0.38654
          Condensed to atoms (all electrons):
               1          2          3
     1  O    7.833117   0.232470   0.232470
     2  H    0.232470   0.656129  -0.037627
     3  H    0.232470  -0.037627   0.656129
 Mulliken charges:
               1
     1  O   -0.298056
     2  H    0.149028
     3  H    0.149028
 Sum of Mulliken charges=  -0.00000
 Mulliken charges with hydrogens summed into heavy atoms:
               1
     1  O   -0.000000
 APT charges:
               1
     1  O   -0.093023
     2  H    0.046511
     3  H    0.046511
 Sum of APT charges=  -0.00000
 APT charges with hydrogens summed into heavy atoms:
               1
     1  O   -0.000000
 Electronic spatial extent (au):  <R**2>=             18.7991
 Charge=             -0.0000 electrons
 Dipole moment (field-independent basis, Debye):
    X=             -0.0000    Y=              0.0000    Z=             -1.5934  Tot=              1.5934
 Quadrupole moment (field-independent basis, Debye-Ang):
   XX=             -6.1631   YY=             -4.5856   ZZ=             -5.2856
   XY=              0.0000   XZ=              0.0000   YZ=             -0.0000
 Traceless Quadrupole moment (field-independent basis, Debye-Ang):
   XX=             -0.8184   YY=              0.7592   ZZ=              0.0592
   XY=              0.0000   XZ=              0.0000   YZ=             -0.0000
 Octapole moment (field-independent basis, Debye-Ang**2):
  XXX=              0.0000  YYY=              0.0000  ZZZ=             -0.0663  XYY=             -0.0000
  XXY=             -0.0000  XXZ=              0.0572  XZZ=              0.0000  YZZ=              0.0000
  YYZ=             -0.4952  XYZ=             -0.0000
 Hexadecapole moment (field-independent basis, Debye-Ang**3):
 XXXX=             -3.3069 YYYY=             -7.0778 ZZZZ=             -5.5918 XXXY=             -0.0000
 XXXZ=             -0.0000 YYYX=             -0.0000 YYYZ=             -0.0000 ZZZX=             -0.0000
 ZZZY=              0.0000 XXYY=             -1.8697 XXZZ=             -1.5381 YYZZ=             -1.8271
 XXYZ=              0.0000 YYXZ=              0.0000 ZZXY=             -0.0000
 N-N=           8.585125 E-N=        -195.704553  KE=          74.471481
 Symmetry A1   KE=          66.468914
 Symmetry A2   KE=           0.000000
 Symmetry B1   KE=           5.057462
 Symmetry B2   KE=           2.945105
 No NMR shielding tensors so no spin-rotation constants.
 Leave Link  601 at Wed Sep  3 18:22:45 2025, MaxMem= 12348030976 cpu:               2.3 elap:               0.1
 (Enter /home/hhratchian/gaussian/gdv-20250101-j30+/gdv/l701.exe)
 ... and contract with generalized density number  0.
 Compute integral second derivatives.
 Leave Link  701 at Wed Sep  3 18:22:46 2025, MaxMem= 12348030976 cpu:               2.4 elap:               0.1
 (Enter /home/hhratchian/gaussian/gdv-20250101-j30+/gdv/l702.exe)
 L702 exits ... SP integral derivatives will be done elsewhere.
 Leave Link  702 at Wed Sep  3 18:22:46 2025, MaxMem= 12348030976 cpu:               0.2 elap:               0.0
 (Enter /home/hhratchian/gaussian/gdv-20250101-j30+/gdv/l703.exe)
 Integral derivatives from FoFJK, PRISM(SPDF).
 Compute integral second derivatives, UseDBF=F ICtDFT=           0.
 Calling FoFJK, ICntrl=    100127 FMM=F ISym2X=1 I1Cent= 0 IOpClX= 0 NMat=1 NMatS=1 NMatT=0.
 FoFJK:  IHMeth= 1 ICntrl=  100127 DoSepK=F KAlg= 0 I1Cent=           0 FoldK=F
 IRaf=         0 NMat=       1 IRICut=       1 DoRegI=T DoRafI=F ISym2E= 1 IDoP0=0 IntGTp=1.
 FoFCou: FMM=F IPFlag=           0 FMFlag=      100000 FMFlg1=         800
         NFxFlg=           0 DoJE=F BraDBF=F KetDBF=F FulRan=T
         wScrn=  0.000000 ICntrl=    100127 IOpCl=  0 I1Cent=           0 NGrid=           0
         NMat0=    1 NMatS0=      1 NMatT0=    0 NMatD0=    1 NMtDS0=    0 NMtDT0=    0
 Petite list used in FoFCou.
 Leave Link  703 at Wed Sep  3 18:22:46 2025, MaxMem= 12348030976 cpu:               6.0 elap:               0.2
 (Enter /home/hhratchian/gaussian/gdv-20250101-j30+/gdv/l716.exe)
 Dipole        =-3.18065146D-17 7.14603299D-16-6.26905014D-01
 Polarizability= 3.25275165D-02 3.71179997D-16 5.64690892D+00
                 2.74038633D-16-7.29935336D-13 3.05288739D+00
 Full mass-weighted force constant matrix:
 Low frequencies ---   -0.0011    0.0008    0.0009   39.8198   45.4928   52.3454
 Low frequencies --- 2017.3270 3611.2752 3835.5230
 Diagonal vibrational polarizability:
        0.0000000       0.0981946       0.1614562
 Harmonic frequencies (cm**-1), IR intensities (KM/Mole), Raman scattering
 activities (A**4/AMU), depolarization ratios for plane and unpolarized
 incident light, reduced masses (AMU), force constants (mDyne/A),
 and normal coordinates:
                      1                      2                      3
                     A1                     A1                     B2
 Frequencies --   2017.3270              3611.2752              3835.5230
 Red. masses --      1.0771                 1.0505                 1.0745
 Frc consts  --      2.5825                 8.0714                 9.3129
 IR Inten    --      2.7078                69.5653                53.6789
  Atom  AN      X      Y      Z        X      Y      Z        X      Y      Z
     1   8    -0.00   0.00  -0.07     0.00  -0.00   0.05    -0.00  -0.07  -0.00
     2   1     0.00   0.45   0.54     0.00   0.57  -0.42    -0.00   0.53  -0.47
     3   1     0.00  -0.45   0.54    -0.00  -0.57  -0.42     0.00   0.53   0.47

 -------------------
 - Thermochemistry -
 -------------------
 Temperature 298.150 Kelvin.  Pressure 1.00000 Atm.
 Atom     1 has atomic number  8 and mass  15.99491
 Atom     2 has atomic number  1 and mass   1.00783
 Atom     3 has atomic number  1 and mass   1.00783
 Molecular mass:    18.01056 amu.
 Principal axes and moments of inertia in atomic units:
                                 1                 2                 3
     Eigenvalues --            2.952303          4.272313          7.224615
           X                   0.000000          0.000000          1.000000
           Y                   1.000000          0.000000         -0.000000
           Z                  -0.000000          1.000000         -0.000000
 This molecule is an asymmetric top.
 Rotational symmetry number  2.
 Rotational temperatures (Kelvin)     29.33775    20.27331    11.98872
 Rotational constants (GHZ):         611.29955   422.42720   249.80447
 Zero-point vibrational energy      56608.0 (Joules/Mol)
                                   13.52965 (Kcal/Mol)
 Vibrational temperatures:   2902.48  5195.82  5518.46
          (Kelvin)
 
 Zero-point correction=                           0.021561 (Hartree/Particle)
 Thermal correction to Energy=                    0.024394
 Thermal correction to Enthalpy=                  0.025338
 Thermal correction to Gibbs Free Energy=         0.003711
 Sum of electronic and zero-point Energies=            -75.301214
 Sum of electronic and thermal Energies=               -75.298381
 Sum of electronic and thermal Enthalpies=             -75.297437
 Sum of electronic and thermal Free Energies=          -75.319064
 
                     E (Thermal)             CV                S
                      KCal/Mol        Cal/Mol-Kelvin    Cal/Mol-Kelvin
 Total                   15.307              5.973             45.518
 Electronic               0.000              0.000              0.000
 Translational            0.889              2.981             34.608
 Rotational               0.889              2.981             10.909
 Vibrational             13.530              0.011              0.001
                       Q            Log10(Q)             Ln(Q)
 Total Bot       0.196384D-01         -1.706895         -3.930270
 Total V=0       0.162333D+09          8.210406         18.905157
 Vib (Bot)       0.120983D-09         -9.917274        -22.835368
 Vib (V=0)       0.100006D+01          0.000026          0.000059
 Electronic      0.100000D+01          0.000000          0.000000
 Translational   0.300431D+07          6.477745         14.915559
 Rotational      0.540300D+02          1.732635          3.989539
 
                                            H2O — B3LYP/STO-3G q=0 m=1 [1/3: St
 ability]
                                                             IR Spectrum
 
     3       3                                                    2                                                                  
     8       6                                                    0                                                                  
     3       1                                                    1                                                                  
     6       1                                                    7                                                                  
 
     X       X                                                    X                                                                  
     X       X                                                                                                                       
     X       X                                                                                                                       
     X       X                                                                                                                       
     X       X                                                                                                                       
     X       X                                                                                                                       
     X       X                                                                                                                       
     X       X                                                                                                                       
     X       X                                                                                                                       
     X       X                                                                                                                       
     X       X                                                                                                                       
     X       X                                                                                                                       
     X       X                                                                                                                       
     X       X                                                                                                                       
     X       X                                                                                                                       
             X                                                                                                                       
             X                                                                                                                       
             X                                                                                                                       
             X                                                                                                                       
             X                                                                                                                       
 
 ***** Axes restored to original set *****
 -------------------------------------------------------------------
 Center     Atomic                   Forces (Hartrees/Bohr)
 Number     Number              X              Y              Z
 -------------------------------------------------------------------
      1        8           0.000000000   -0.000000000    0.000238559
      2        1          -0.000088465    0.000000000   -0.000119279
      3        1           0.000088465    0.000000000   -0.000119279
 -------------------------------------------------------------------
 Cartesian Forces:  Max     0.000238559 RMS     0.000105944
 Force constants in Cartesian coordinates: 
                1             2             3             4             5 
      1  0.589422D+00
      2  0.000000D+00  0.185617D-03
      3  0.000000D+00  0.000000D+00  0.510909D+00
      4 -0.294711D+00  0.000000D+00 -0.157062D+00  0.329834D+00
      5  0.000000D+00 -0.928085D-04  0.000000D+00  0.000000D+00  0.766416D-04
      6 -0.259886D+00  0.000000D+00 -0.255455D+00  0.208474D+00  0.000000D+00
      7 -0.294711D+00  0.000000D+00  0.157062D+00 -0.351233D-01  0.000000D+00
      8  0.000000D+00 -0.928085D-04  0.000000D+00  0.000000D+00  0.161669D-04
      9  0.259886D+00  0.000000D+00 -0.255455D+00 -0.514123D-01  0.000000D+00
                6             7             8             9 
      6  0.242383D+00
      7  0.514123D-01  0.329834D+00
      8  0.000000D+00  0.000000D+00  0.766416D-04
      9  0.130722D-01 -0.208474D+00  0.000000D+00  0.242383D+00
 FormGI is forming the generalized inverse of G from B-inverse, IUseBI=4.
 NTrRot=    -1 NTRed=     3 NAtoms=     3 NSkip=     0 NRank=     3 IsLin=F EigSml=6.8766D-01
 Force constants in internal coordinates: 
                1             2             3 
      1  0.498409D+00
      2 -0.255360D-01  0.498409D+00
      3  0.336904D-01  0.336904D-01  0.277886D+00
 Leave Link  716 at Wed Sep  3 18:22:46 2025, MaxMem= 12348030976 cpu:               0.2 elap:               0.0
 (Enter /home/hhratchian/gaussian/gdv-20250101-j30+/gdv/l103.exe)

 GradGradGradGradGradGradGradGradGradGradGradGradGradGradGradGradGradGrad
 Berny optimization.
 Internal  Forces:  Max     0.000145248 RMS     0.000123557
 Search for a local minimum.
 Step number   1 out of a maximum of    2
 All quantities printed in internal units (Hartrees-Bohrs-Radians)
 Second derivative matrix not updated -- analytic derivatives used.
 The second derivative matrix:
                          R1        R2        A1
           R1           0.49841
           R2          -0.02554   0.49841
           A1           0.03369   0.03369   0.27789
 ITU=  0
     Eigenvalues ---    0.26687   0.48389   0.52394
 Angle between quadratic step and forces=  16.20 degrees.
 Linear search not attempted -- first point.
 GrdOpt: GIC=T ITstSp=  0 NP=   1 DidLin=F DidDIS=F IDoGRo=0 IDoRot=0
         ISwap=1 XLin= 0.000 DXMaxT= 0.300
 Iteration  1 RMS(Cart)=  0.00012063 RMS(Int)=  0.00000003
 Iteration  2 RMS(Cart)=  0.00000002 RMS(Int)=  0.00000000
 ClnCor:  largest displacement from symmetrization is 8.39D-15 for atom     3.
 Variable       Old X    -DE/DX   Delta X   Delta X   Delta X     New X
                                 (Linear)    (Quad)   (Total)
    R1        1.94135  -0.00015   0.00000  -0.00033  -0.00033   1.94102
    R2        1.94135  -0.00015   0.00000  -0.00033  -0.00033   1.94102
    A1        1.69591   0.00006   0.00000   0.00030   0.00030   1.69621
         Item               Value     Threshold  Converged?
 Maximum Force            0.000145     0.000450     YES
 RMS     Force            0.000124     0.000300     YES
 Maximum Displacement     0.000288     0.001800     YES
 RMS     Displacement     0.000209     0.001200     YES
 Predicted change in Energy=-5.655084D-08
 Optimization completed.
    -- Stationary point found.
                           ----------------------------
                           !   Optimized Parameters   !
                           ! (Angstroms and Degrees)  !
 --------------------------                            --------------------------
 ! Name  Definition              Value          Derivative Info.                !
 --------------------------------------------------------------------------------
 ! R1    R(1,2)                  1.0273         -DE/DX =   -0.0001              !
 ! R2    R(1,3)                  1.0273         -DE/DX =   -0.0001              !
 ! A1    A(2,1,3)               97.1685         -DE/DX =    0.0001              !
 --------------------------------------------------------------------------------
 GradGradGradGradGradGradGradGradGradGradGradGradGradGradGradGradGradGrad

 Leave Link  103 at Wed Sep  3 18:22:46 2025, MaxMem= 12348030976 cpu:               0.2 elap:               0.0
 (Enter /home/hhratchian/gaussian/gdv-20250101-j30+/gdv/local/l9999.exe)

 ----------------------------------------------------------------------

 Electric dipole moment (input orientation):
 (Debye = 10**-18 statcoulomb cm , SI units = C m)
                  (au)            (Debye)         (10**-30 SI)
   Tot        0.626905D+00      0.159343D+01      0.531512D+01
   x          0.000000D+00      0.000000D+00      0.000000D+00
   y          0.000000D+00      0.000000D+00      0.000000D+00
   z          0.626905D+00      0.159343D+01      0.531512D+01

 Dipole polarizability, Alpha (input orientation).
 (esu units = cm**3 , SI units = C**2 m**2 J**-1)
 Alpha(0;0):
               (au)            (10**-24 esu)      (10**-40 SI)
   iso        0.291077D+01      0.431332D+00      0.479922D+00
   aniso      0.486687D+01      0.721195D+00      0.802438D+00
   xx         0.564691D+01      0.836786D+00      0.931050D+00
   yx         0.000000D+00      0.000000D+00      0.000000D+00
   yy         0.325275D-01      0.482008D-02      0.536306D-02
   zx         0.000000D+00      0.000000D+00      0.000000D+00
   zy         0.000000D+00      0.000000D+00      0.000000D+00
   zz         0.305289D+01      0.452391D+00      0.503353D+00

 ----------------------------------------------------------------------

 Dipole orientation:
     8          0.00000000         -0.00000000         -0.22085299
     1          1.45587456          0.00000000          1.06338514
     1         -1.45587456         -0.00000000          1.06338514

 Electric dipole moment (dipole orientation):
 (Debye = 10**-18 statcoulomb cm , SI units = C m)
                  (au)            (Debye)         (10**-30 SI)
   Tot        0.626905D+00      0.159343D+01      0.531512D+01
   x          0.000000D+00      0.000000D+00      0.000000D+00
   y          0.000000D+00      0.000000D+00      0.000000D+00
   z          0.626905D+00      0.159343D+01      0.531512D+01

 Dipole polarizability, Alpha (dipole orientation).
 (esu units = cm**3 , SI units = C**2 m**2 J**-1)
 Alpha(0;0):
               (au)            (10**-24 esu)      (10**-40 SI)
   iso        0.291077D+01      0.431332D+00      0.479922D+00
   aniso      0.486687D+01      0.721195D+00      0.802438D+00
   xx         0.564691D+01      0.836786D+00      0.931050D+00
   yx         0.000000D+00      0.000000D+00      0.000000D+00
   yy         0.325275D-01      0.482008D-02      0.536306D-02
   zx         0.000000D+00      0.000000D+00      0.000000D+00
   zy         0.000000D+00      0.000000D+00      0.000000D+00
   zz         0.305289D+01      0.452391D+00      0.503353D+00

 ----------------------------------------------------------------------
 Unable to Open any file for archive entry.
 1\1\GINC-NODE030\Freq\RB3LYP\Gen\H2O1\AABOUTAKA\03-Sep-2025\0\\#P Geom
 =AllCheck Guess=TCheck SCRF=Check GenChk RB3LYP/ChkBas Freq\\H2O — B
 3LYP/STO-3G q=0 m=1 [1/3: Stability]\\0,1\O,0.,0.,-0.1168703695\H,0.77
 04156407,0.,0.5627191847\H,-0.7704156407,0.,0.5627191847\\Version=ES64
 L-GDVRevJ.30+\State=1-A1\HF=-75.322775\RMSD=1.764e-16\RMSF=1.059e-04\Z
 eroPoint=0.0215609\Thermal=0.024394\ETot=-75.298381\HTot=-75.2974369\G
 Tot=-75.3190641\Dipole=0.,0.,0.626905\DipoleDeriv=0.0419452,0.,0.,0.,-
 0.4881532,0.,0.,0.,0.1671398,-0.0209726,0.,-0.1717373,0.,0.2440766,0.,
 -0.2338021,0.,-0.0835699,-0.0209726,0.,0.1717373,0.,0.2440766,0.,0.233
 8021,0.,-0.0835699\Polar=5.6469089,0.,0.0325275,0.,0.,3.0528874\Quadru
 pole=0.5644519,-0.6084299,0.0439781,0.,0.,0.\PG=C02V [C2(O1),SGV(H2)]\
 NImag=0\\0.58942181,0.,0.00018562,0.,0.,0.51090941,-0.29471091,0.,-0.1
 5706187,0.32983423,0.,-0.00009281,0.,0.,0.00007664,-0.25988638,0.,-0.2
 5545470,0.20847412,0.,0.24238253,-0.29471091,0.,0.15706187,-0.03512333
 ,0.,0.05141226,0.32983423,0.,-0.00009281,0.,0.,0.00001617,0.,0.,0.0000
 7664,0.25988638,0.,-0.25545470,-0.05141226,0.,0.01307217,-0.20847412,0
 .,0.24238253\\0.,0.,-0.00023856,0.00008846,0.,0.00011928,-0.00008846,0
 .,0.00011928\\\@
 The archive entry for this job was punched.


 Human beings, who are almost unique in having the
 ability to learn from the experience of others, are
 also remarkable for their apparent disinclination to do so.
                               -- Douglas Adams,
                                Last Chance to See
 Job cpu time:       0 days  0 hours  1 minutes 43.4 seconds.
 Elapsed time:       0 days  0 hours  0 minutes  3.0 seconds.
 File lengths (MBytes):  RWF=     38 Int=      0 D2E=      0 Chk=     17 Scr=      2
 Normal termination of Gaussian DV at Wed Sep  3 18:22:46 2025.
 Initial command:
 /home/hhratchian/gaussian/gdv-20250101-j30+/gdv/local/l1.exe "/scratch/aaboutaka/1590341/Gau-3802138.inp" -scrdir="/scratch/aaboutaka/1590341/"
 Default is to use a total of  56 processors:
                               56 via shared-memory
                                1 via Linda
 Entering Link 1 = /home/hhratchian/gaussian/gdv-20250101-j30+/gdv/local/l1.exe PID=   3807807.
  
 Copyright (c) 1988-2024, Gaussian, Inc.  All Rights Reserved.
  
 This is the private, development version of
 the Gaussian(R) DV system of programs. It is based on
 the Gaussian(R) 16 system (copyright 2016, Gaussian, Inc.),
 the Gaussian(R) 09 system (copyright 2009, Gaussian, Inc.),
 the Gaussian(R) 03 system (copyright 2003, Gaussian, Inc.),
 the Gaussian(R) 98 system (copyright 1998, Gaussian, Inc.),
 the Gaussian(R) 94 system (copyright 1995, Gaussian, Inc.),
 the Gaussian 92(TM) system (copyright 1992, Gaussian, Inc.),
 the Gaussian 90(TM) system (copyright 1990, Gaussian, Inc.),
 the Gaussian 88(TM) system (copyright 1988, Gaussian, Inc.),
 the Gaussian 86(TM) system (copyright 1986, Carnegie Mellon
 University), and the Gaussian 82(TM) system (copyright 1983,
 Carnegie Mellon University). Gaussian is a federally registered
 trademark of Gaussian, Inc.
  
 This software contains proprietary and confidential information,
 including trade secrets, belonging to Gaussian, Inc.
  
 This software is provided under written license and may be
 used, copied, transmitted, or stored only in accord with that
 written license.
  
 The following legend is applicable only to US Government
 contracts under FAR:
  
                    RESTRICTED RIGHTS LEGEND
  
 Use, reproduction and disclosure by the US Government is
 subject to restrictions as set forth in subparagraphs (a)
 and (c) of the Commercial Computer Software - Restricted
 Rights clause in FAR 52.227-19.
  
 Gaussian, Inc.
 340 Quinnipiac St., Bldg. 40, Wallingford CT 06492
  
  
 ---------------------------------------------------------------
 Warning -- This program may not be used in any manner that
 competes with the business of Gaussian, Inc. or will provide
 assistance to any competitor of Gaussian, Inc.  The licensee
 of this program is prohibited from giving any competitor of
 Gaussian, Inc. access to this program.  By using this program,
 the user acknowledges that Gaussian, Inc. is engaged in the
 business of creating and licensing software in the field of
 computational chemistry and represents and warrants to the
 licensee that it is not a competitor of Gaussian, Inc. and that
 it will not use this program in any manner prohibited above.
 ---------------------------------------------------------------
  

 Cite this work as:
 Gaussian Development Version, Revision J.30+,
 M. J. Frisch, G. W. Trucks, G. Scalmani, J. R. Cheeseman, X. Li, 
 J. Bloino, B. G. Janesko, A. V. Marenich, J. Zheng, F. Lipparini, 
 A. Jenkins, A. Liu, H. Liu, H. B. Schlegel, G. E. Scuseria, 
 M. A. Robb, V. Barone, G. A. Petersson, H. Nakatsuji, B. Mennucci, 
 C. Adamo, N. Rega, M. Caricato, H. P. Hratchian, J. V. Ortiz, 
 F. Pawlowski, A. F. Izmaylov, H. Hu, C. Liao, J. L. Sonnenberg, 
 D. Williams-Young, F. Ding, R. Gomperts, F. Egidi, J. Goings, 
 B. Peng, A. Petrone, T. Henderson, D. Ranasinghe, V. G. Zakrzewski, 
 J. Gao, G. Zheng, W. Liang, M. Hada, M. Ehara, K. Toyota, R. Fukuda, 
 J. Hasegawa, M. Ishida, T. Nakajima, Y. Honda, O. Kitao, H. Nakai, 
 T. Vreven, K. Throssell, J. A. Montgomery, Jr., J. E. Peralta, 
 F. Ogliaro, M. J. Bearpark, J. J. Heyd, E. N. Brothers, K. N. Kudin, 
 V. N. Staroverov, T. A. Keith, R. Kobayashi, J. Normand, 
 K. Raghavachari, A. P. Rendell, J. C. Burant, S. S. Iyengar, 
 M. Cossi, J. M. Millam, M. Klene, R. Cammi, R. L. Martin, O. Farkas, 
 J. B. Foresman, and D. J. Fox, Gaussian, Inc., Wallingford CT, 2024.
 
 *******************************************
 Gaussian DV:  ES64L-GDVRevJ.30+ 18-Dec-2024
                  3-Sep-2025 
 *******************************************
 %oldchk=H2O_B3LYP_STO-3G_q0_m1.chk
 %chk=H2O_B3LYP_STO-3G_q0_m1_stab.chk
 Copying data from "H2O_B3LYP_STO-3G_q0_m1.chk" to current chk file "H2O_B3LYP_STO-3G_q0_m1_stab.chk"
 IOpt=  2 FromEx=T IUOpen= 4 IOptOp= 5 NList=   0 IFRang= 0 IUIn= 4 IUOut= 2.
 ----------------------------------------------------------------------
 #p B3LYP stable=opt guess=read chkbasis geom=allcheck int=superfinegri
 d
 ----------------------------------------------------------------------
 1/29=7,38=1,172=1/1;
 2/12=2/2;
 3/5=7,6=2,11=2,14=-4,25=1,30=1,67=1,74=-5,75=-7,116=-2/1,2,3;
 4/5=1/1;
 5/5=2,38=6/2;
 6/7=2,8=2,9=2,10=2,28=1/1;
 8/6=1,10=90,11=11/1;
 9/8=-3,42=1,46=1/14;
 5/5=2,8=3,17=40,38=6/8(-2);
 6/7=2,8=2,9=2,10=2,28=1/1;
 99/5=1,9=1/99;
 Leave Link    1 at Wed Sep  3 18:22:46 2025, MaxMem= 12348030976 cpu:               0.3 elap:               0.1
 (Enter /home/hhratchian/gaussian/gdv-20250101-j30+/gdv/local/l101.exe)
 
  Hrant - IAPOps =                         0
  Hrant - IAPOp1 =                         0
  Hrant - IAPOp2 =                         0
  Hrant - DoAP   =   F
 
 Structure from the checkpoint file:  "H2O_B3LYP_STO-3G_q0_m1_stab.chk"
 ---------------------------------------------
 H2O — B3LYP/STO-3G q=0 m=1 [1/3: Stability]
 ---------------------------------------------
 Charge =     0 Multiplicity =     1
 Redundant internal coordinates found in file.  (GICs).
 O,0,0.,0.,-0.1168703695
 H,0,0.7704156407,0.,0.5627191847
 H,0,-0.7704156407,0.,0.5627191847
 
 Recover connectivity data from disk.
 Reading GIC definitions from chk.
 Reading GIC derivative info from chk.
 ITRead=  0  0  0
 MicOpt= -1 -1 -1
                           ----------------------------
                           !    Current Parameters    !
                           ! (Angstroms and Degrees)  !
 --------------------------                            --------------------------
 ! Name  Definition              Value                                          !
 --------------------------------------------------------------------------------
 ! R1    R(1,2)                  1.0273                                         !
 ! R2    R(1,3)                  1.0273                                         !
 ! A1    A(2,1,3)               97.1685                                         !
 --------------------------------------------------------------------------------
 NAtoms=      3 NQM=        3 NQMF=       0 NMMI=      0 NMMIF=      0
                NMic=       0 NMicF=      0.
                    Isotopes and Nuclear Properties:
 (Nuclear quadrupole moments (NQMom) in fm**2, nuclear magnetic moments (NMagM)
  in nuclear magnetons)

  Atom         1           2           3
 IAtWgt=          16           1           1
 AtmWgt=  15.9949146   1.0078250   1.0078250
 NucSpn=           0           1           1
 AtZEff=    5.600000    1.000000    1.000000
 NQMom=    0.0000000   0.0000000   0.0000000
 NMagM=    0.0000000   2.7928460   2.7928460
 AtZNuc=   8.0000000   1.0000000   1.0000000
 Leave Link  101 at Wed Sep  3 18:22:46 2025, MaxMem= 12348030976 cpu:               0.4 elap:               0.2
 (Enter /home/hhratchian/gaussian/gdv-20250101-j30+/gdv/l202.exe)
                          Input orientation:                          
 ---------------------------------------------------------------------
 Center     Atomic      Atomic             Coordinates (Angstroms)
 Number     Number       Type             X           Y           Z
 ---------------------------------------------------------------------
      1          8           0       -0.000000    0.000000   -0.116870
      2          1           0        0.770416    0.000000    0.562719
      3          1           0       -0.770416   -0.000000    0.562719
 ---------------------------------------------------------------------
                    Distance matrix (angstroms):
                    1          2          3
     1  O    0.000000
     2  H    1.027318   0.000000
     3  H    1.027318   1.540831   0.000000
 Stoichiometry    H2O
 Framework group  C2V[C2(O),SGV(H2)]
 Deg. of freedom     2
 Full point group                 C2V     NOp   4
 RotChk:  IX=0 Diff= 3.69D-15
 Largest Abelian subgroup         C2V     NOp   4
 Largest concise Abelian subgroup C2      NOp   2
                         Standard orientation:                         
 ---------------------------------------------------------------------
 Center     Atomic      Atomic             Coordinates (Angstroms)
 Number     Number       Type             X           Y           Z
 ---------------------------------------------------------------------
      1          8           0       -0.000000    0.000000    0.135918
      2          1           0       -0.000000    0.770416   -0.543672
      3          1           0       -0.000000   -0.770416   -0.543672
 ---------------------------------------------------------------------
 Rotational constants (GHZ):         611.2995480         422.4272040         249.8044656
 Leave Link  202 at Wed Sep  3 18:22:46 2025, MaxMem= 12348030976 cpu:               0.3 elap:               0.0
 (Enter /home/hhratchian/gaussian/gdv-20250101-j30+/gdv/local/l301.exe)
 Basis read from chk: "H2O_B3LYP_STO-3G_q0_m1_stab.chk" (5D, 7F)
 No pseudopotential information found on chk file.
 There are     4 symmetry adapted cartesian basis functions of A1  symmetry.
 There are     0 symmetry adapted cartesian basis functions of A2  symmetry.
 There are     1 symmetry adapted cartesian basis functions of B1  symmetry.
 There are     2 symmetry adapted cartesian basis functions of B2  symmetry.
 There are     4 symmetry adapted basis functions of A1  symmetry.
 There are     0 symmetry adapted basis functions of A2  symmetry.
 There are     1 symmetry adapted basis functions of B1  symmetry.
 There are     2 symmetry adapted basis functions of B2  symmetry.
     7 basis functions,    21 primitive gaussians,     7 cartesian basis functions
     5 alpha electrons        5 beta electrons
       nuclear repulsion energy         8.5851252991 Hartrees.
 IExCor=      4002 DFT=T Ex+Corr=B3LYP ScaHFX=  0.200000
 ScaDFX=  0.800000  0.720000  1.000000  0.810000  1.000000  0.000000
 ScaDFX=  0.000000  0.000000  0.000000  0.000000  0.000000  0.000000
 Grid=SuperFine IRanWt=     -1 IRanGd=            0 ICorTp=0 IEDCtl=  2004
 NAtoms=    3 NActive=    3 NUniq=    2 SFac= 2.25D+00 NAtFMM=   60 NAOKFM=F Big=F
 Integral buffers will be    131072 words long.
 Raffenetti 2 integral format.
 Two-electron integral symmetry is turned on.
 No density basis found on file 200724.
 Leave Link  301 at Wed Sep  3 18:22:46 2025, MaxMem= 12348030976 cpu:               0.2 elap:               0.1
 (Enter /home/hhratchian/gaussian/gdv-20250101-j30+/gdv/l302.exe)
 NPDir=0 NMtPBC=     1 NCelOv=     1 NCel=       1 NClECP=     1 NCelD=      1
         NCelK=      1 NCelE2=     1 NClLst=     1 CellRange=     0.0.
 One-electron integrals computed using PRISM.
 One-electron integral symmetry used in STVInt
 NBasis=     7 RedAO= T EigKep=  3.88D-01  NBF=     4     0     1     2
 NBsUse=     7 1.00D-06 EigRej= -1.00D+00 NBFU=     4     0     1     2
 Precomputing XC quadrature grid using
 IXCGrd=   9 Grid=SuperFine IRanWt=          -1 IRanGd=           0 AccXCQ= 0.00D+00.
 Generated NRdTot=       0 NPtTot=      186343 NUsed=           0 NTot=          64
 NSgBfM=     7     7     7     7     7 MxSgAt=     3 MxSgA2=     3 SizInc=   0.000
 NMBTot=     1256 MaxBatPerAtom=      123 MaxMicBPerAtom=      426 NBfPt=             1126849.
 Leave Link  302 at Wed Sep  3 18:22:46 2025, MaxMem= 12348030976 cpu:               2.4 elap:               0.1
 (Enter /home/hhratchian/gaussian/gdv-20250101-j30+/gdv/l303.exe)
 DipDrv:  MaxL=1.
 Leave Link  303 at Wed Sep  3 18:22:47 2025, MaxMem= 12348030976 cpu:               0.2 elap:               0.0
 (Enter /home/hhratchian/gaussian/gdv-20250101-j30+/gdv/l401.exe)
 Initial guess from the checkpoint file:  "H2O_B3LYP_STO-3G_q0_m1_stab.chk"
 B after Tr=    -0.000000   -0.000000    0.000000
         Rot=    1.000000   -0.000000    0.000000    0.000000 Ang=   0.00 deg.
 AO Guess basis will be translated and rotated to current coordinates.
 JPrj=2 DoOrth=T DoCkMO=T.
 Initial guess orbital symmetries:
       Occupied  (A1) (A1) (B2) (A1) (B1)
       Virtual   (A1) (B2)
 The electronic state of the initial guess is 1-A1.
 Leave Link  401 at Wed Sep  3 18:22:47 2025, MaxMem= 12348030976 cpu:               0.3 elap:               0.1
 (Enter /home/hhratchian/gaussian/gdv-20250101-j30+/gdv/local/l502.exe)
 Keep R1 ints in memory in symmetry-blocked form, NReq=47923544.
 FoFCou: FMM=F IPFlag=           0 FMFlag=           0 FMFlg1=           0
         NFxFlg=           0 DoJE=F BraDBF=F KetDBF=F FulRan=T
         wScrn=  0.000000 ICntrl=       600 IOpCl=  0 I1Cent=           0 NGrid=           0
         NMat0=    1 NMatS0=     28 NMatT0=    0 NMatD0=    1 NMtDS0=    0 NMtDT0=    0
 Petite list used in FoFCou.
 Closed shell SCF:
 Using DIIS extrapolation, IDIIS=  1040.
 NGot= 12348030976 LenX= 12348027978 LenY= 12348027096
 Requested convergence on RMS density matrix=1.00D-08 within 128 cycles.
 Requested convergence on MAX density matrix=1.00D-06.
 Requested convergence on             energy=1.00D-06.
 No special actions if energy rises.
 
  Hrant - CycOpn.
 

 Cycle   1  Pass 1  IDiag  1:
 E= -75.3227750115164    
 DIIS: error= 1.85D-12 at cycle   1 NSaved=   1.
 NSaved= 1 IEnMin= 1 EnMin= -75.3227750115164     IErMin= 1 ErrMin= 1.85D-12
 ErrMax= 1.85D-12  0.00D+00 EMaxC= 1.00D-01 BMatC= 1.20D-23 BMatP= 1.20D-23
 Rises=F IDIUse=1 WtCom= 1.00D+00 WtEn= 0.00D+00
 Coeff-Com:  0.100D+01
 Coeff:      0.100D+01
 Gap=     0.450 Goal=   None    Shift=    0.000
 Skip diagonalization as Alpha Fock matrix is already diagonal.
 RMSDP=3.78D-32 MaxDP=1.45D-31              OVMax= 0.00D+00

 SCF Done:  E(RB3LYP) =  -75.3227750115     A.U. after    1 cycles
            NFock=  1  Conv=0.38D-31     -V/T= 2.0114
 KE=          74.471481 PE=        -195.704553 EE=          37.325172
 Leave Link  502 at Wed Sep  3 18:22:47 2025, MaxMem= 12348030976 cpu:               2.5 elap:               0.1
 (Enter /home/hhratchian/gaussian/gdv-20250101-j30+/gdv/l601.exe)
 Copying SCF densities to generalized density rwf, IOpCl= 0 IROHF=0.
 
 **********************************************************************
 
               Population analysis using the SCF Density.
 
 **********************************************************************
 
 Orbital symmetries:
       Occupied  (A1) (A1) (B2) (A1) (B1)
       Virtual   (A1) (B2)
 The electronic state is 1-A1.
 Alpha  occ. eigenvalues --      -18.85232      -0.91213      -0.40438      -0.25490      -0.14609
 Alpha virt. eigenvalues --        0.30409       0.38654
          Condensed to atoms (all electrons):
               1          2          3
     1  O    7.833117   0.232470   0.232470
     2  H    0.232470   0.656129  -0.037627
     3  H    0.232470  -0.037627   0.656129
 Mulliken charges:
               1
     1  O   -0.298056
     2  H    0.149028
     3  H    0.149028
 Sum of Mulliken charges=  -0.00000
 Mulliken charges with hydrogens summed into heavy atoms:
               1
     1  O   -0.000000
 Electronic spatial extent (au):  <R**2>=             18.7991
 Charge=             -0.0000 electrons
 Dipole moment (field-independent basis, Debye):
    X=             -0.0000    Y=              0.0000    Z=             -1.5934  Tot=              1.5934
 Quadrupole moment (field-independent basis, Debye-Ang):
   XX=             -6.1631   YY=             -4.5856   ZZ=             -5.2856
   XY=              0.0000   XZ=              0.0000   YZ=             -0.0000
 Traceless Quadrupole moment (field-independent basis, Debye-Ang):
   XX=             -0.8184   YY=              0.7592   ZZ=              0.0592
   XY=              0.0000   XZ=              0.0000   YZ=             -0.0000
 Octapole moment (field-independent basis, Debye-Ang**2):
  XXX=              0.0000  YYY=              0.0000  ZZZ=             -0.0663  XYY=             -0.0000
  XXY=             -0.0000  XXZ=              0.0572  XZZ=              0.0000  YZZ=             -0.0000
  YYZ=             -0.4952  XYZ=             -0.0000
 Hexadecapole moment (field-independent basis, Debye-Ang**3):
 XXXX=             -3.3069 YYYY=             -7.0778 ZZZZ=             -5.5918 XXXY=             -0.0000
 XXXZ=             -0.0000 YYYX=             -0.0000 YYYZ=             -0.0000 ZZZX=             -0.0000
 ZZZY=             -0.0000 XXYY=             -1.8697 XXZZ=             -1.5381 YYZZ=             -1.8271
 XXYZ=              0.0000 YYXZ=              0.0000 ZZXY=             -0.0000
 N-N=           8.585125 E-N=        -195.704553  KE=          74.471481
 Symmetry A1   KE=          66.468914
 Symmetry A2   KE=           0.000000
 Symmetry B1   KE=           5.057462
 Symmetry B2   KE=           2.945105
 No NMR shielding tensors so no spin-rotation constants.
 Leave Link  601 at Wed Sep  3 18:22:47 2025, MaxMem= 12348030976 cpu:               2.3 elap:               0.1
 (Enter /home/hhratchian/gaussian/gdv-20250101-j30+/gdv/l801.exe)
 DoSCS=F DFT=T ScalE2(SS,OS)=  1.000000  1.000000
 Range of M.O.s used for correlation:     1     7
 NBasis=     7 NAE=     5 NBE=     5 NFC=     0 NFV=     0
 NROrb=      7 NOA=     5 NOB=     5 NVA=     2 NVB=     2
 Leave Link  801 at Wed Sep  3 18:22:47 2025, MaxMem= 12348030976 cpu:               0.2 elap:               0.0
 (Enter /home/hhratchian/gaussian/gdv-20250101-j30+/gdv/l914.exe)
 RHF ground state
 Doing stability rather than CIS.
 DoSCS=F DFT=T ScalE2(SS,OS)=  1.000000  1.000000
   ScalD2(USS,UOS,TSS,TOS,w)=  1.000000  1.000000  1.000000  1.000000  1.000000
 Keep R1 and R2 ints in memory in symmetry-blocked form, NReq=53730587.
 FoFCou: FMM=F IPFlag=           0 FMFlag=           0 FMFlg1=           0
         NFxFlg=           0 DoJE=F BraDBF=F KetDBF=F FulRan=T
         wScrn=  0.000000 ICntrl=       600 IOpCl=  0 I1Cent=           0 NGrid=           0
         NMat0=    1 NMatS0=     28 NMatT0=    0 NMatD0=    1 NMtDS0=    0 NMtDT0=    0
 Petite list used in FoFCou.
 MDV= 12348030976 DFT=T IDoStb=1 Mixed=T DoRPA=F DoScal=F NonHer=F
 Making orbital integer symmetry assigments:
 Orbital symmetries:
       Occupied  (A1) (A1) (B2) (A1) (B1)
       Virtual   (A1) (B2)
 The electronic state is 1-A1.
    20 initial guesses have been made.
 Convergence on wavefunction:    0.001000000000000
 Davidson Disk Diagonalization:  ConvIn= 1.00D-03 SkipCon=T Conv= 1.00D-03.
 Max sub-space:    48 initial roots:    24 roots to seek:     1 dimension of matrix:           20
 *** WARNING: Number of orthogonal guesses is           20
 Iteration     1 Dimension    20 NMult     0 NNew     20
 CISAX will form    20 AO SS matrices at one time.
 NMat=    20 NSing=    10 JSym2X=-1.
 New state      1 was old state      2
 Excitation Energies [eV] at current iteration:
 Root      1 :     7.590087313600859
 Root      2 :     9.304825907251315
 Root      3 :     9.859214484836771
 Root      4 :    10.564123847307414
 Root      5 :    11.234661876494371
 Root      6 :    12.296512255092850
 Root      7 :    14.728181030810244
 Root      8 :    14.772810110329941
 Root      9 :    14.862770215263534
 Root     10 :    17.226222293201360
 Root     11 :    23.195848284389267
 Root     12 :    27.399052007317522
 Root     13 :    29.052455668955826
 Root     14 :    30.293188163500087
 Root     15 :    36.525951702148781
 Root     16 :    44.166202578988923
 Root     17 :   515.920802042430523
 Root     18 :   518.107622868590511
 Root     19 :   518.983856104447796
 Root     20 :   520.152472607909431
 Convergence achieved for final wavefunctions.
 1PDM for each excited state written to RWF  633
 Ground to excited state transition densities written to RWF  633

 ***********************************************************************
 Stability analysis using <AA,BB:AA,BB> singles matrix:
 ***********************************************************************

 Eigenvectors of the stability matrix:
 
 Eigenvector   1:      Triplet-B1   Eigenvalue= 0.2789306  <S**2>=2.000
       5 ->  6         0.70711
 
 Eigenvector   2:      Triplet-A1   Eigenvalue= 0.3419461  <S**2>=2.000
       3 ->  7         0.24160
       4 ->  6         0.65902
 
 Eigenvector   3:      Triplet-A2   Eigenvalue= 0.3623195  <S**2>=2.000
       5 ->  7         0.70711
 
 Eigenvector   4:      Triplet-B2   Eigenvalue= 0.3882244  <S**2>=2.000
       3 ->  6         0.40142
       4 ->  7         0.58061
 
 Eigenvector   5:      Singlet-B1   Eigenvalue= 0.4128662  <S**2>=0.000
       5 ->  6         0.70711
 
 Eigenvector   6:      Singlet-A2   Eigenvalue= 0.4518885  <S**2>=0.000
       5 ->  7         0.70711
 The wavefunction is stable under the perturbations considered.
 Leave Link  914 at Wed Sep  3 18:22:47 2025, MaxMem= 12348030976 cpu:               5.1 elap:               0.2
 (Enter /home/hhratchian/gaussian/gdv-20250101-j30+/gdv/l508.exe)
 The wavefunction is already stable.
 Leave Link  508 at Wed Sep  3 18:22:47 2025, MaxMem= 12348030976 cpu:               0.1 elap:               0.0
 (Enter /home/hhratchian/gaussian/gdv-20250101-j30+/gdv/l601.exe)
 Copying SCF densities to generalized density rwf, IOpCl= 0 IROHF=0.
 
 **********************************************************************
 
               Population analysis using the SCF Density.
 
 **********************************************************************
 
 Orbital symmetries:
       Occupied  (A1) (A1) (B2) (A1) (B1)
       Virtual   (A1) (B2)
 The electronic state is 1-A1.
 Alpha  occ. eigenvalues --      -18.85232      -0.91213      -0.40438      -0.25490      -0.14609
 Alpha virt. eigenvalues --        0.30409       0.38654
          Condensed to atoms (all electrons):
               1          2          3
     1  O    7.833117   0.232470   0.232470
     2  H    0.232470   0.656129  -0.037627
     3  H    0.232470  -0.037627   0.656129
 Mulliken charges:
               1
     1  O   -0.298056
     2  H    0.149028
     3  H    0.149028
 Sum of Mulliken charges=  -0.00000
 Mulliken charges with hydrogens summed into heavy atoms:
               1
     1  O   -0.000000
 Electronic spatial extent (au):  <R**2>=             18.7991
 Charge=             -0.0000 electrons
 Dipole moment (field-independent basis, Debye):
    X=             -0.0000    Y=              0.0000    Z=             -1.5934  Tot=              1.5934
 Quadrupole moment (field-independent basis, Debye-Ang):
   XX=             -6.1631   YY=             -4.5856   ZZ=             -5.2856
   XY=              0.0000   XZ=              0.0000   YZ=             -0.0000
 Traceless Quadrupole moment (field-independent basis, Debye-Ang):
   XX=             -0.8184   YY=              0.7592   ZZ=              0.0592
   XY=              0.0000   XZ=              0.0000   YZ=             -0.0000
 Octapole moment (field-independent basis, Debye-Ang**2):
  XXX=              0.0000  YYY=              0.0000  ZZZ=             -0.0663  XYY=             -0.0000
  XXY=             -0.0000  XXZ=              0.0572  XZZ=              0.0000  YZZ=             -0.0000
  YYZ=             -0.4952  XYZ=             -0.0000
 Hexadecapole moment (field-independent basis, Debye-Ang**3):
 XXXX=             -3.3069 YYYY=             -7.0778 ZZZZ=             -5.5918 XXXY=             -0.0000
 XXXZ=             -0.0000 YYYX=             -0.0000 YYYZ=             -0.0000 ZZZX=             -0.0000
 ZZZY=             -0.0000 XXYY=             -1.8697 XXZZ=             -1.5381 YYZZ=             -1.8271
 XXYZ=              0.0000 YYXZ=              0.0000 ZZXY=             -0.0000
 N-N=           8.585125 E-N=        -195.704553  KE=          74.471481
 Symmetry A1   KE=          66.468914
 Symmetry A2   KE=           0.000000
 Symmetry B1   KE=           5.057462
 Symmetry B2   KE=           2.945105
 No NMR shielding tensors so no spin-rotation constants.
 Leave Link  601 at Wed Sep  3 18:22:47 2025, MaxMem= 12348030976 cpu:               2.3 elap:               0.1
 (Enter /home/hhratchian/gaussian/gdv-20250101-j30+/gdv/local/l9999.exe)
 Unable to Open any file for archive entry.
 1\1\GINC-NODE030\Stability\RB3LYP\Gen\H2O1\AABOUTAKA\03-Sep-2025\0\\#p
  B3LYP stable=opt guess=read chkbasis geom=allcheck int=superfinegrid\
 \H2O — B3LYP/STO-3G q=0 m=1 [1/3: Stability]\\0,1\O,0,0.,0.,-0.11687
 03695\H,0,0.7704156407,0.,0.5627191847\H,0,-0.7704156407,0.,0.56271918
 47\\Version=ES64L-GDVRevJ.30+\State=1-A1\HF=-75.322775\RMSD=3.775e-32\
 Dipole=0.,0.,0.626905\Quadrupole=0.5644519,-0.6084299,0.0439781,0.,0.,
 0.\PG=C02V [C2(O1),SGV(H2)]\\@
 The archive entry for this job was punched.


 MEMORIES ARE LIKE AN ENGLISH GRAMMER LESSON -
 PRESENT TENSE, AND PAST PERFECT.
 Job cpu time:       0 days  0 hours  0 minutes 17.3 seconds.
 Elapsed time:       0 days  0 hours  0 minutes  1.2 seconds.
 File lengths (MBytes):  RWF=     30 Int=      0 D2E=      0 Chk=     74 Scr=      2
 Normal termination of Gaussian DV at Wed Sep  3 18:22:47 2025.
