 Set GAUSS_MDEF to "92GB".
 Set GAUSS_PDEF to "14".
 Entering Gaussian System, Link 0=gdv
 Initial command:
 /home/hhratchian/gaussian/gdv-20250101-j30+/gdv/local/l1.exe "/scratch/aaboutaka/1590285/Gau-3296839.inp" -scrdir="/scratch/aaboutaka/1590285/"
 Default is to use a total of  14 processors:
                               14 via shared-memory
                                1 via Linda
 Entering Link 1 = /home/hhratchian/gaussian/gdv-20250101-j30+/gdv/local/l1.exe PID=   3296840.
  
 Copyright (c) 1988-2024, Gaussian, Inc.  All Rights Reserved.
  
 This is the private, development version of
 the Gaussian(R) DV system of programs. It is based on
 the Gaussian(R) 16 system (copyright 2016, Gaussian, Inc.),
 the Gaussian(R) 09 system (copyright 2009, Gaussian, Inc.),
 the Gaussian(R) 03 system (copyright 2003, Gaussian, Inc.),
 the Gaussian(R) 98 system (copyright 1998, Gaussian, Inc.),
 the Gaussian(R) 94 system (copyright 1995, Gaussian, Inc.),
 the Gaussian 92(TM) system (copyright 1992, Gaussian, Inc.),
 the Gaussian 90(TM) system (copyright 1990, Gaussian, Inc.),
 the Gaussian 88(TM) system (copyright 1988, Gaussian, Inc.),
 the Gaussian 86(TM) system (copyright 1986, Carnegie Mellon
 University), and the Gaussian 82(TM) system (copyright 1983,
 Carnegie Mellon University). Gaussian is a federally registered
 trademark of Gaussian, Inc.
  
 This software contains proprietary and confidential information,
 including trade secrets, belonging to Gaussian, Inc.
  
 This software is provided under written license and may be
 used, copied, transmitted, or stored only in accord with that
 written license.
  
 The following legend is applicable only to US Government
 contracts under FAR:
  
                    RESTRICTED RIGHTS LEGEND
  
 Use, reproduction and disclosure by the US Government is
 subject to restrictions as set forth in subparagraphs (a)
 and (c) of the Commercial Computer Software - Restricted
 Rights clause in FAR 52.227-19.
  
 Gaussian, Inc.
 340 Quinnipiac St., Bldg. 40, Wallingford CT 06492
  
  
 ---------------------------------------------------------------
 Warning -- This program may not be used in any manner that
 competes with the business of Gaussian, Inc. or will provide
 assistance to any competitor of Gaussian, Inc.  The licensee
 of this program is prohibited from giving any competitor of
 Gaussian, Inc. access to this program.  By using this program,
 the user acknowledges that Gaussian, Inc. is engaged in the
 business of creating and licensing software in the field of
 computational chemistry and represents and warrants to the
 licensee that it is not a competitor of Gaussian, Inc. and that
 it will not use this program in any manner prohibited above.
 ---------------------------------------------------------------
  

 Cite this work as:
 Gaussian Development Version, Revision J.30+,
 M. J. Frisch, G. W. Trucks, G. Scalmani, J. R. Cheeseman, X. Li, 
 J. Bloino, B. G. Janesko, A. V. Marenich, J. Zheng, F. Lipparini, 
 A. Jenkins, A. Liu, H. Liu, H. B. Schlegel, G. E. Scuseria, 
 M. A. Robb, V. Barone, G. A. Petersson, H. Nakatsuji, B. Mennucci, 
 C. Adamo, N. Rega, M. Caricato, H. P. Hratchian, J. V. Ortiz, 
 F. Pawlowski, A. F. Izmaylov, H. Hu, C. Liao, J. L. Sonnenberg, 
 D. Williams-Young, F. Ding, R. Gomperts, F. Egidi, J. Goings, 
 B. Peng, A. Petrone, T. Henderson, D. Ranasinghe, V. G. Zakrzewski, 
 J. Gao, G. Zheng, W. Liang, M. Hada, M. Ehara, K. Toyota, R. Fukuda, 
 J. Hasegawa, M. Ishida, T. Nakajima, Y. Honda, O. Kitao, H. Nakai, 
 T. Vreven, K. Throssell, J. A. Montgomery, Jr., J. E. Peralta, 
 F. Ogliaro, M. J. Bearpark, J. J. Heyd, E. N. Brothers, K. N. Kudin, 
 V. N. Staroverov, T. A. Keith, R. Kobayashi, J. Normand, 
 K. Raghavachari, A. P. Rendell, J. C. Burant, S. S. Iyengar, 
 M. Cossi, J. M. Millam, M. Klene, R. Cammi, R. L. Martin, O. Farkas, 
 J. B. Foresman, and D. J. Fox, Gaussian, Inc., Wallingford CT, 2024.
 
 *******************************************
 Gaussian DV:  ES64L-GDVRevJ.30+ 18-Dec-2024
                  3-Sep-2025 
 *******************************************
 %chk=H2O_HF_6-31+Gdp_q0_m1.chk
 ---------------------------------------------------
 #p HF/6-31+G(d,p) stable=opt scf=novaracc guess=mix
 ---------------------------------------------------
 1/37=210000000,38=1,172=1/1;
 2/12=2/2;
 3/5=1,6=6,7=1011,11=2,25=1,30=1/1,2,3;
 4/13=-1/1;
 5/5=2,38=1/2;
 6/7=2,8=2,9=2,10=2,28=1/1;
 8/6=1,10=90,11=11/1;
 9/8=-3,42=1,46=1/14;
 5/5=2,8=3,17=40,38=1/8(-2);
 6/7=2,8=2,9=2,10=2,28=1/1;
 99/5=1,9=1/99;
 Leave Link    1 at Wed Sep  3 17:00:46 2025, MaxMem=           0 cpu:               1.8 elap:               0.8
 (Enter /home/hhratchian/gaussian/gdv-20250101-j30+/gdv/local/l101.exe)
 
  Hrant - IAPOps =                         0
  Hrant - IAPOp1 =                         0
  Hrant - IAPOp2 =                         0
  Hrant - DoAP   =   F
 
 -----------------------------------------------
 H2O — HF/6-31+G(d,p) q=0 m=1 [1/3: Stability]
 -----------------------------------------------
 Symbolic Z-matrix:
 Charge =     0 Multiplicity =     1
 O                     0.        0.        0. 
 H                     0.7586    0.        0.50428 
 H                    -0.7586    0.        0.50428 
 
 ITRead=  0  0  0
 MicOpt= -1 -1 -1
 NAtoms=      3 NQM=        3 NQMF=       0 NMMI=      0 NMMIF=      0
                NMic=       0 NMicF=      0.
                    Isotopes and Nuclear Properties:
 (Nuclear quadrupole moments (NQMom) in fm**2, nuclear magnetic moments (NMagM)
  in nuclear magnetons)

  Atom         1           2           3
 IAtWgt=          16           1           1
 AtmWgt=  15.9949146   1.0078250   1.0078250
 NucSpn=           0           1           1
 AtZEff=   -0.000000   -0.000000   -0.000000
 NQMom=    0.0000000   0.0000000   0.0000000
 NMagM=    0.0000000   2.7928460   2.7928460
 AtZNuc=   8.0000000   1.0000000   1.0000000
 Leave Link  101 at Wed Sep  3 17:00:48 2025, MaxMem= 12348030976 cpu:               2.8 elap:               1.7
 (Enter /home/hhratchian/gaussian/gdv-20250101-j30+/gdv/l202.exe)
                          Input orientation:                          
 ---------------------------------------------------------------------
 Center     Atomic      Atomic             Coordinates (Angstroms)
 Number     Number       Type             X           Y           Z
 ---------------------------------------------------------------------
      1          8           0        0.000000    0.000000    0.000000
      2          1           0        0.758602    0.000000    0.504284
      3          1           0       -0.758602   -0.000000    0.504284
 ---------------------------------------------------------------------
                    Distance matrix (angstroms):
                    1          2          3
     1  O    0.000000
     2  H    0.910922   0.000000
     3  H    0.910922   1.517204   0.000000
 Stoichiometry    H2O
 Framework group  C2V[C2(O),SGV(H2)]
 Deg. of freedom     2
 Full point group                 C2V     NOp   4
 Largest Abelian subgroup         C2V     NOp   4
 Largest concise Abelian subgroup C2      NOp   2
                         Standard orientation:                         
 ---------------------------------------------------------------------
 Center     Atomic      Atomic             Coordinates (Angstroms)
 Number     Number       Type             X           Y           Z
 ---------------------------------------------------------------------
      1          8           0        0.000000    0.000000    0.100857
      2          1           0        0.000000    0.758602   -0.403427
      3          1           0       -0.000000   -0.758602   -0.403427
 ---------------------------------------------------------------------
 Rotational constants (GHZ):        1110.1894251         435.6864908         312.8935057
 Leave Link  202 at Wed Sep  3 17:00:48 2025, MaxMem= 12348030976 cpu:               1.8 elap:               0.5
 (Enter /home/hhratchian/gaussian/gdv-20250101-j30+/gdv/local/l301.exe)
 Standard basis: 6-31+G(d,p) (6D, 7F)
 Ernie: Thresh=  0.10000D-02 Tol=  0.10000D-05 Strict=F.
 There are    14 symmetry adapted cartesian basis functions of A1  symmetry.
 There are     2 symmetry adapted cartesian basis functions of A2  symmetry.
 There are     5 symmetry adapted cartesian basis functions of B1  symmetry.
 There are     8 symmetry adapted cartesian basis functions of B2  symmetry.
 There are    14 symmetry adapted basis functions of A1  symmetry.
 There are     2 symmetry adapted basis functions of A2  symmetry.
 There are     5 symmetry adapted basis functions of B1  symmetry.
 There are     8 symmetry adapted basis functions of B2  symmetry.
    29 basis functions,    46 primitive gaussians,    29 cartesian basis functions
     5 alpha electrons        5 beta electrons
       nuclear repulsion energy         9.6435792538 Hartrees.
 IExCor=         0 DFT=F Ex=HF Corr=None N6=None ScaHFX=  1.000000
 ScaDFX=  1.000000  1.000000  1.000000  1.000000  1.000000  0.000000
 ScaDFX=  0.000000  0.000000  0.000000  0.000000  0.000000  0.000000
 Grid=UltraFine IRanWt=     -1 IRanGd=            0 ICorTp=0 IEDCtl=  2004
 NAtoms=    3 NActive=    3 NUniq=    2 SFac= 2.25D+00 NAtFMM=   60 NAOKFM=F Big=F
 Integral buffers will be    131072 words long.
 Raffenetti 2 integral format.
 Two-electron integral symmetry is turned on.
 Leave Link  301 at Wed Sep  3 17:00:49 2025, MaxMem= 12348030976 cpu:               1.5 elap:               1.0
 (Enter /home/hhratchian/gaussian/gdv-20250101-j30+/gdv/l302.exe)
 NPDir=0 NMtPBC=     1 NCelOv=     1 NCel=       1 NClECP=     1 NCelD=      1
         NCelK=      1 NCelE2=     1 NClLst=     1 CellRange=     0.0.
 One-electron integrals computed using PRISM.
 One-electron integral symmetry used in STVInt
 NBasis=    29 RedAO= T EigKep=  1.62D-02  NBF=    14     2     5     8
 NBsUse=    29 1.00D-06 EigRej= -1.00D+00 NBFU=    14     2     5     8
 Leave Link  302 at Wed Sep  3 17:00:52 2025, MaxMem= 12348030976 cpu:              15.6 elap:               2.0
 (Enter /home/hhratchian/gaussian/gdv-20250101-j30+/gdv/l303.exe)
 DipDrv:  MaxL=1.
 Leave Link  303 at Wed Sep  3 17:00:52 2025, MaxMem= 12348030976 cpu:               1.6 elap:               0.7
 (Enter /home/hhratchian/gaussian/gdv-20250101-j30+/gdv/l401.exe)
 ExpMin= 8.45D-02 ExpMax= 5.48D+03 ExpMxC= 8.25D+02 IAcc=3 Grid=UltraFine AccDes= 0.00D+00
 Harris functional with IExCor= 2005 and Grid=UltraFine diagonalized for initial guess.
 HarFok:  IExCor=    2005 AccDes= 0.00D+00 Grid=UltraFine IDoV= 1 UseB2=F ITyADJ=14 ICtDFT=  3500011
 FoFCou: FMM=F IPFlag=           0 FMFlag=      100000 FMFlg1=           0
         NFxFlg=           0 DoJE=T BraDBF=F KetDBF=T FulRan=T
         wScrn=  0.000000 ICntrl=       500 IOpCl=  0 I1Cent=   200000004 NGrid=           0
         NMat0=    1 NMatS0=      1 NMatT0=    0 NMatD0=    1 NMtDS0=    0 NMtDT0=    0
 Petite list used in FoFCou.
 Harris En= -76.1162611822955    
 JPrj=0 DoOrth=F DoCkMO=T.
 Mixing orbitals, IMix= 1 IMixAn=  0 NRI=1 NE=    5 Coef=  7.07106781D-01  7.07106781D-01
 Initial guess orbital symmetries:
       Occupied  (A1) (A1) (B2) (A1) (?A)
       Virtual   (?A) (B2) (A1) (B1) (B2) (A1) (B2) (A1) (B1) (B2)
                 (A1) (A1) (A2) (A1) (B1) (B2) (A1) (B2) (B1) (A2)
                 (A1) (A1) (B2) (A1)
 Leave Link  401 at Wed Sep  3 17:00:56 2025, MaxMem= 12348030976 cpu:              34.6 elap:               3.3
 (Enter /home/hhratchian/gaussian/gdv-20250101-j30+/gdv/local/l502.exe)
 Keep R1 ints in memory in symmetry-blocked form, NReq=2569172.
 FoFCou: FMM=F IPFlag=           0 FMFlag=           0 FMFlg1=           0
         NFxFlg=           0 DoJE=F BraDBF=F KetDBF=F FulRan=T
         wScrn=  0.000000 ICntrl=       600 IOpCl=  0 I1Cent=           0 NGrid=           0
         NMat0=    1 NMatS0=    435 NMatT0=    0 NMatD0=    1 NMtDS0=    0 NMtDT0=    0
 Petite list used in FoFCou.
 Closed shell SCF:
 Using DIIS extrapolation, IDIIS=  1040.
 NGot= 12348030976 LenX= 12347999701 LenY= 12347998419
 Requested convergence on RMS density matrix=1.00D-08 within 128 cycles.
 Requested convergence on MAX density matrix=1.00D-06.
 Requested convergence on             energy=1.00D-06.
 No special actions if energy rises.
 An orbital has undefined symmetry, so N**3 symmetry is turned off.
 
  Hrant - CycOpn.
 

 Cycle   1  Pass 1  IDiag  1:
 Density matrix breaks symmetry, PCut= 1.00D-07
 Density matrix has no symmetry -- integrals replicated.
 E= -75.6285390989206    
 DIIS: error= 7.16D-02 at cycle   1 NSaved=   1.
 NSaved= 1 IEnMin= 1 EnMin= -75.6285390989206     IErMin= 1 ErrMin= 7.16D-02
 ErrMax= 7.16D-02  0.00D+00 EMaxC= 1.00D-01 BMatC= 4.11D-02 BMatP= 4.11D-02
 Rises=F IDIUse=3 WtCom= 2.84D-01 WtEn= 7.16D-01
 Coeff-Com:  0.100D+01
 Coeff-En:   0.100D+01
 Coeff:      0.100D+01
 Gap=     0.316 Goal=   None    Shift=    0.000
 GapD=    0.316 DampG=1.000 DampE=0.500 DampFc=0.5000 IDamp=-1.
 Damping current iteration by 5.00D-01
 RMSDP=4.24D-02 MaxDP=5.75D-01              OVMax= 4.45D-01

 Cycle   2  Pass 1  IDiag  1:
 Density matrix breaks symmetry, PCut= 1.00D-07
 Density matrix has no symmetry -- integrals replicated.
 E= -75.7540613483439     Delta-E=       -0.125522249423 Rises=F Damp=T AM=F Ri=F Fa=F
 DIIS: error= 5.22D-02 at cycle   2 NSaved=   2.
 NSaved= 2 IEnMin= 2 EnMin= -75.7540613483439     IErMin= 2 ErrMin= 5.22D-02
 ErrMax= 5.22D-02  0.00D+00 EMaxC= 1.00D-01 BMatC= 2.10D-02 BMatP= 4.11D-02
 Rises=F IDIUse=3 WtCom= 4.78D-01 WtEn= 5.22D-01
 Coeff-Com: -0.478D+00 0.148D+01
 Coeff-En:   0.000D+00 0.100D+01
 Coeff:     -0.229D+00 0.123D+01
 Gap=     0.514 Goal=   None    Shift=    0.000
 RMSDP=2.70D-02 MaxDP=3.44D-01 DE=-1.26D-01 OVMax= 1.07D-01

 Cycle   3  Pass 1  IDiag  1:
 Density matrix breaks symmetry, PCut= 1.00D-07
 Density matrix has no symmetry -- integrals replicated.
 E= -75.9875655719572     Delta-E=       -0.233504223613 Rises=F Damp=F AM=F Ri=F Fa=F
 DIIS: error= 2.90D-02 at cycle   3 NSaved=   3.
 NSaved= 3 IEnMin= 3 EnMin= -75.9875655719572     IErMin= 3 ErrMin= 2.90D-02
 ErrMax= 2.90D-02  0.00D+00 EMaxC= 1.00D-01 BMatC= 4.33D-03 BMatP= 2.10D-02
 Rises=F IDIUse=3 WtCom= 7.10D-01 WtEn= 2.90D-01
 Coeff-Com:  0.747D-01-0.426D+00 0.135D+01
 Coeff-En:   0.000D+00 0.000D+00 0.100D+01
 Coeff:      0.530D-01-0.302D+00 0.125D+01
 Gap=     0.628 Goal=   None    Shift=    0.000
 RMSDP=8.72D-03 MaxDP=8.82D-02 DE=-2.34D-01 OVMax= 1.39D-01

 Cycle   4  Pass 1  IDiag  1:
 Density matrix breaks symmetry, PCut= 1.00D-07
 Density matrix has no symmetry -- integrals replicated.
 E= -76.0224354492121     Delta-E=       -0.034869877255 Rises=F Damp=F AM=F Ri=F Fa=F
 DIIS: error= 1.20D-02 at cycle   4 NSaved=   4.
 NSaved= 4 IEnMin= 4 EnMin= -76.0224354492121     IErMin= 4 ErrMin= 1.20D-02
 ErrMax= 1.20D-02  0.00D+00 EMaxC= 1.00D-01 BMatC= 6.91D-04 BMatP= 4.33D-03
 Rises=F IDIUse=3 WtCom= 8.80D-01 WtEn= 1.20D-01
 Coeff-Com: -0.177D+00 0.386D+00-0.806D+00 0.160D+01
 Coeff-En:   0.000D+00 0.000D+00 0.000D+00 0.100D+01
 Coeff:     -0.156D+00 0.340D+00-0.709D+00 0.152D+01
 Gap=     0.657 Goal=   None    Shift=    0.000
 RMSDP=3.85D-03 MaxDP=4.09D-02 DE=-3.49D-02 OVMax= 6.85D-02

 Cycle   5  Pass 1  IDiag  1:
 Density matrix breaks symmetry, PCut= 1.00D-07
 Density matrix has no symmetry -- integrals replicated.
 E= -76.0280022147155     Delta-E=       -0.005566765503 Rises=F Damp=F AM=F Ri=F Fa=F
 DIIS: error= 2.64D-03 at cycle   5 NSaved=   5.
 NSaved= 5 IEnMin= 5 EnMin= -76.0280022147155     IErMin= 5 ErrMin= 2.64D-03
 ErrMax= 2.64D-03  0.00D+00 EMaxC= 1.00D-01 BMatC= 4.00D-05 BMatP= 6.91D-04
 Rises=F IDIUse=3 WtCom= 9.86D-01 WtEn= 1.35D-02
 Coeff-Com:  0.448D-01-0.892D-01 0.523D-01-0.226D+00 0.122D+01
 Coeff-En:   0.000D+00 0.000D+00 0.000D+00 0.000D+00 0.100D+01
 Coeff:      0.442D-01-0.880D-01 0.516D-01-0.223D+00 0.121D+01
 Gap=     0.662 Goal=   None    Shift=    0.000
 RMSDP=8.89D-04 MaxDP=9.35D-03 DE=-5.57D-03 OVMax= 1.61D-02

 Cycle   6  Pass 1  IDiag  1:
 Density matrix breaks symmetry, PCut= 1.00D-07
 Density matrix has no symmetry -- integrals replicated.
 E= -76.0282450183237     Delta-E=       -0.000242803608 Rises=F Damp=F AM=F Ri=F Fa=F
 DIIS: error= 3.68D-04 at cycle   6 NSaved=   6.
 NSaved= 6 IEnMin= 6 EnMin= -76.0282450183237     IErMin= 6 ErrMin= 3.68D-04
 ErrMax= 3.68D-04  0.00D+00 EMaxC= 1.00D-01 BMatC= 2.18D-06 BMatP= 4.00D-05
 Rises=F IDIUse=3 WtCom= 9.99D-01 WtEn= 7.05D-04
 Coeff-Com: -0.677D-02 0.901D-02 0.404D-01-0.522D-01-0.229D+00 0.124D+01
 Coeff-En:   0.000D+00 0.000D+00 0.000D+00 0.000D+00 0.000D+00 0.100D+01
 Coeff:     -0.676D-02 0.900D-02 0.404D-01-0.522D-01-0.229D+00 0.124D+01
 Gap=     0.659 Goal=   None    Shift=    0.000
 RMSDP=1.88D-04 MaxDP=2.46D-03 DE=-2.43D-04 OVMax= 1.67D-03

 Cycle   7  Pass 1  IDiag  1:
 Density matrix breaks symmetry, PCut= 1.00D-07
 Density matrix has no symmetry -- integrals replicated.
 E= -76.0282526779623     Delta-E=       -0.000007659639 Rises=F Damp=F AM=F Ri=F Fa=F
 DIIS: error= 9.30D-05 at cycle   7 NSaved=   7.
 NSaved= 7 IEnMin= 7 EnMin= -76.0282526779623     IErMin= 7 ErrMin= 9.30D-05
 ErrMax= 9.30D-05  0.00D+00 EMaxC= 1.00D-01 BMatC= 1.12D-07 BMatP= 2.18D-06
 Rises=F IDIUse=1 WtCom= 1.00D+00 WtEn= 0.00D+00
 Coeff-Com:  0.920D-03-0.778D-03-0.120D-01 0.230D-01-0.156D-02-0.214D+00
 Coeff-Com:  0.120D+01
 Coeff:      0.920D-03-0.778D-03-0.120D-01 0.230D-01-0.156D-02-0.214D+00
 Coeff:      0.120D+01
 Gap=     0.660 Goal=   None    Shift=    0.000
 RMSDP=3.20D-05 MaxDP=2.37D-04 DE=-7.66D-06 OVMax= 5.01D-04

 Cycle   8  Pass 1  IDiag  1:
 Density matrix breaks symmetry, PCut= 1.00D-07
 Density matrix has no symmetry -- integrals replicated.
 E= -76.0282531112308     Delta-E=       -0.000000433268 Rises=F Damp=F AM=F Ri=F Fa=F
 DIIS: error= 2.46D-05 at cycle   8 NSaved=   8.
 NSaved= 8 IEnMin= 8 EnMin= -76.0282531112308     IErMin= 8 ErrMin= 2.46D-05
 ErrMax= 2.46D-05  0.00D+00 EMaxC= 1.00D-01 BMatC= 1.08D-08 BMatP= 1.12D-07
 Rises=F IDIUse=1 WtCom= 1.00D+00 WtEn= 0.00D+00
 Coeff-Com: -0.403D-03 0.959D-03-0.158D-02 0.182D-02 0.218D-02-0.585D-01
 Coeff-Com:  0.342D-01 0.102D+01
 Coeff:     -0.403D-03 0.959D-03-0.158D-02 0.182D-02 0.218D-02-0.585D-01
 Coeff:      0.342D-01 0.102D+01
 Gap=     0.660 Goal=   None    Shift=    0.000
 RMSDP=7.77D-06 MaxDP=9.15D-05 DE=-4.33D-07 OVMax= 8.98D-05

 Cycle   9  Pass 1  IDiag  1:
 Density matrix breaks symmetry, PCut= 1.00D-07
 Density matrix has no symmetry -- integrals replicated.
 E= -76.0282531413314     Delta-E=       -0.000000030101 Rises=F Damp=F AM=F Ri=F Fa=F
 DIIS: error= 5.01D-06 at cycle   9 NSaved=   9.
 NSaved= 9 IEnMin= 9 EnMin= -76.0282531413314     IErMin= 9 ErrMin= 5.01D-06
 ErrMax= 5.01D-06  0.00D+00 EMaxC= 1.00D-01 BMatC= 1.96D-10 BMatP= 1.08D-08
 Rises=F IDIUse=1 WtCom= 1.00D+00 WtEn= 0.00D+00
 Coeff-Com: -0.871D-05-0.586D-04 0.473D-03-0.694D-03-0.393D-03 0.166D-01
 Coeff-Com: -0.621D-01-0.149D+00 0.119D+01
 Coeff:     -0.871D-05-0.586D-04 0.473D-03-0.694D-03-0.393D-03 0.166D-01
 Coeff:     -0.621D-01-0.149D+00 0.119D+01
 Gap=     0.660 Goal=   None    Shift=    0.000
 RMSDP=1.60D-06 MaxDP=1.37D-05 DE=-3.01D-08 OVMax= 2.47D-05

 Cycle  10  Pass 1  IDiag  1:
 Density matrix breaks symmetry, PCut= 1.00D-07
 Density matrix has no symmetry -- integrals replicated.
 E= -76.0282531423565     Delta-E=       -0.000000001025 Rises=F Damp=F AM=F Ri=F Fa=F
 DIIS: error= 7.08D-07 at cycle  10 NSaved=  10.
 NSaved=10 IEnMin=10 EnMin= -76.0282531423565     IErMin=10 ErrMin= 7.08D-07
 ErrMax= 7.08D-07  0.00D+00 EMaxC= 1.00D-01 BMatC= 6.96D-12 BMatP= 1.96D-10
 Rises=F IDIUse=1 WtCom= 1.00D+00 WtEn= 0.00D+00
 Coeff-Com: -0.554D-05 0.198D-04-0.974D-04 0.937D-04 0.324D-03-0.496D-02
 Coeff-Com:  0.175D-01 0.445D-01-0.409D+00 0.135D+01
 Coeff:     -0.554D-05 0.198D-04-0.974D-04 0.937D-04 0.324D-03-0.496D-02
 Coeff:      0.175D-01 0.445D-01-0.409D+00 0.135D+01
 Gap=     0.660 Goal=   None    Shift=    0.000
 RMSDP=3.70D-07 MaxDP=4.39D-06 DE=-1.03D-09 OVMax= 3.80D-06

 Cycle  11  Pass 1  IDiag  1:
 Density matrix breaks symmetry, PCut= 1.00D-07
 Density matrix has no symmetry -- integrals replicated.
 E= -76.0282531423912     Delta-E=       -0.000000000035 Rises=F Damp=F AM=F Ri=F Fa=F
 DIIS: error= 1.81D-07 at cycle  11 NSaved=  11.
 NSaved=11 IEnMin=11 EnMin= -76.0282531423912     IErMin=11 ErrMin= 1.81D-07
 ErrMax= 1.81D-07  0.00D+00 EMaxC= 1.00D-01 BMatC= 3.64D-13 BMatP= 6.96D-12
 Rises=F IDIUse=1 WtCom= 1.00D+00 WtEn= 0.00D+00
 Coeff-Com:  0.705D-07-0.593D-06-0.249D-05 0.305D-04-0.114D-03 0.757D-03
 Coeff-Com: -0.197D-02-0.122D-01 0.903D-01-0.433D+00 0.136D+01
 Coeff:      0.705D-07-0.593D-06-0.249D-05 0.305D-04-0.114D-03 0.757D-03
 Coeff:     -0.197D-02-0.122D-01 0.903D-01-0.433D+00 0.136D+01
 Gap=     0.660 Goal=   None    Shift=    0.000
 RMSDP=5.42D-08 MaxDP=5.42D-07 DE=-3.47D-11 OVMax= 7.93D-07

 Cycle  12  Pass 1  IDiag  1:
 Density matrix breaks symmetry, PCut= 1.00D-07
 Density matrix has no symmetry -- integrals replicated.
 E= -76.0282531423929     Delta-E=       -0.000000000002 Rises=F Damp=F AM=F Ri=F Fa=F
 DIIS: error= 3.41D-08 at cycle  12 NSaved=  12.
 NSaved=12 IEnMin=12 EnMin= -76.0282531423929     IErMin=12 ErrMin= 3.41D-08
 ErrMax= 3.41D-08  0.00D+00 EMaxC= 1.00D-01 BMatC= 1.05D-14 BMatP= 3.64D-13
 Rises=F IDIUse=1 WtCom= 1.00D+00 WtEn= 0.00D+00
 Coeff-Com: -0.176D-07-0.283D-06 0.269D-05-0.737D-05 0.138D-04 0.113D-04
 Coeff-Com: -0.171D-03 0.472D-03-0.191D-02 0.331D-01-0.258D+00 0.123D+01
 Coeff:     -0.176D-07-0.283D-06 0.269D-05-0.737D-05 0.138D-04 0.113D-04
 Coeff:     -0.171D-03 0.472D-03-0.191D-02 0.331D-01-0.258D+00 0.123D+01
 Gap=     0.660 Goal=   None    Shift=    0.000
 RMSDP=1.07D-08 MaxDP=9.69D-08 DE=-1.68D-12 OVMax= 1.42D-07

 Cycle  13  Pass 1  IDiag  1:
 E= -76.0282531423931     Delta-E=       -0.000000000000 Rises=F Damp=F AM=F Ri=F Fa=F
 DIIS: error= 5.39D-09 at cycle  13 NSaved=  13.
 NSaved=13 IEnMin=13 EnMin= -76.0282531423931     IErMin=13 ErrMin= 5.39D-09
 ErrMax= 5.39D-09  0.00D+00 EMaxC= 1.00D-01 BMatC= 1.68D-16 BMatP= 1.05D-14
 Rises=F IDIUse=1 WtCom= 1.00D+00 WtEn= 0.00D+00
 Coeff-Com:  0.578D-07-0.984D-07 0.143D-06-0.562D-06 0.197D-05-0.132D-04
 Coeff-Com:  0.461D-04 0.198D-03-0.198D-02 0.652D-02-0.275D-01-0.356D-01
 Coeff-Com:  0.106D+01
 Coeff:      0.578D-07-0.984D-07 0.143D-06-0.562D-06 0.197D-05-0.132D-04
 Coeff:      0.461D-04 0.198D-03-0.198D-02 0.652D-02-0.275D-01-0.356D-01
 Coeff:      0.106D+01
 Gap=     0.660 Goal=   None    Shift=    0.000
 RMSDP=3.64D-09 MaxDP=2.63D-08 DE=-1.42D-13 OVMax= 3.04D-08

 SCF Done:  E(RHF) =  -76.0282531424     A.U. after   13 cycles
            NFock= 13  Conv=0.36D-08     -V/T= 2.0013
 KE=          75.927601 PE=        -199.678156 EE=          38.078723
 Leave Link  502 at Wed Sep  3 17:00:59 2025, MaxMem= 12348030976 cpu:              25.0 elap:               3.2
 (Enter /home/hhratchian/gaussian/gdv-20250101-j30+/gdv/l601.exe)
 Copying SCF densities to generalized density rwf, IOpCl= 0 IROHF=0.
 
 **********************************************************************
 
               Population analysis using the SCF Density.
 
 **********************************************************************
 
 Orbital symmetries:
       Occupied  (A1) (A1) (B2) (A1) (B1)
       Virtual   (A1) (B2) (A1) (B1) (B2) (A1) (B2) (A1) (B2) (A1)
                 (B1) (A1) (A2) (A1) (B1) (B2) (A1) (B1) (B2) (A2)
                 (A1) (A1) (B2) (A1)
 The electronic state is 1-A1.
 Alpha  occ. eigenvalues --      -20.57117      -1.37562      -0.76279      -0.57584      -0.51114
 Alpha virt. eigenvalues --        0.14859       0.21388       0.25049       0.25179       0.38418
 Alpha virt. eigenvalues --        0.39156       1.23960       1.29927       1.32180       1.36543
 Alpha virt. eigenvalues --        1.40556       1.45137       1.77947       1.87019       1.94401
 Alpha virt. eigenvalues --        2.55869       2.62741       2.98467       2.99603       3.07844
 Alpha virt. eigenvalues --        3.47502       3.85283       3.97383       4.41763
          Condensed to atoms (all electrons):
               1          2          3
     1  O    8.100608   0.317236   0.317236
     2  H    0.317236   0.340138  -0.024914
     3  H    0.317236  -0.024914   0.340138
 Mulliken charges:
               1
     1  O   -0.735080
     2  H    0.367540
     3  H    0.367540
 Sum of Mulliken charges=  -0.00000
 Mulliken charges with hydrogens summed into heavy atoms:
               1
     1  O   -0.000000
 Electronic spatial extent (au):  <R**2>=             18.9259
 Charge=             -0.0000 electrons
 Dipole moment (field-independent basis, Debye):
    X=             -0.0000    Y=              0.0000    Z=             -2.0954  Tot=              2.0954
 Quadrupole moment (field-independent basis, Debye-Ang):
   XX=             -7.5216   YY=             -3.9776   ZZ=             -6.4742
   XY=              0.0000   XZ=              0.0000   YZ=             -0.0000
 Traceless Quadrupole moment (field-independent basis, Debye-Ang):
   XX=             -1.5305   YY=              2.0135   ZZ=             -0.4830
   XY=              0.0000   XZ=              0.0000   YZ=             -0.0000
 Octapole moment (field-independent basis, Debye-Ang**2):
  XXX=              0.0000  YYY=              0.0000  ZZZ=             -1.5234  XYY=             -0.0000
  XXY=             -0.0000  XXZ=             -0.4554  XZZ=              0.0000  YZZ=              0.0000
  YYZ=             -1.3581  XYZ=             -0.0000
 Hexadecapole moment (field-independent basis, Debye-Ang**3):
 XXXX=             -6.6480 YYYY=             -5.1982 ZZZZ=             -6.8891 XXXY=             -0.0000
 XXXZ=             -0.0000 YYYX=              0.0000 YYYZ=             -0.0000 ZZZX=             -0.0000
 ZZZY=             -0.0000 XXYY=             -2.2810 XXZZ=             -2.2889 YYZZ=             -1.8143
 XXYZ=             -0.0000 YYXZ=              0.0000 ZZXY=              0.0000
 N-N=           9.643579 E-N=        -199.678156  KE=          75.927601
 Symmetry A1   KE=          67.835045
 Symmetry A2   KE=          -0.000000
 Symmetry B1   KE=           4.443984
 Symmetry B2   KE=           3.648572
 No NMR shielding tensors so no spin-rotation constants.
 Leave Link  601 at Wed Sep  3 17:01:02 2025, MaxMem= 12348030976 cpu:              23.4 elap:               2.3
 (Enter /home/hhratchian/gaussian/gdv-20250101-j30+/gdv/l801.exe)
 Range of M.O.s used for correlation:     1    29
 NBasis=    29 NAE=     5 NBE=     5 NFC=     0 NFV=     0
 NROrb=     29 NOA=     5 NOB=     5 NVA=    24 NVB=    24
 Leave Link  801 at Wed Sep  3 17:01:03 2025, MaxMem= 12348030976 cpu:               1.5 elap:               0.9
 (Enter /home/hhratchian/gaussian/gdv-20250101-j30+/gdv/l914.exe)
 RHF ground state
 Doing stability rather than CIS.
 Keep R1 and R2 ints in memory in symmetry-blocked form, NReq=2569519.
 FoFCou: FMM=F IPFlag=           0 FMFlag=           0 FMFlg1=           0
         NFxFlg=           0 DoJE=F BraDBF=F KetDBF=F FulRan=T
         wScrn=  0.000000 ICntrl=       600 IOpCl=  0 I1Cent=           0 NGrid=           0
         NMat0=    1 NMatS0=    435 NMatT0=    0 NMatD0=    1 NMtDS0=    0 NMtDT0=    0
 Petite list used in FoFCou.
 MDV= 12348030976 DFT=F IDoStb=1 Mixed=F DoRPA=F DoScal=F NonHer=F
 Making orbital integer symmetry assigments:
 Orbital symmetries:
       Occupied  (A1) (A1) (B2) (A1) (B1)
       Virtual   (A1) (B2) (A1) (B1) (B2) (A1) (B2) (A1) (B2) (A1)
                 (B1) (A1) (A2) (A1) (B1) (B2) (A1) (B1) (B2) (A2)
                 (A1) (A1) (B2) (A1)
    24 initial guesses have been made.
 Convergence on wavefunction:    0.001000000000000
 Davidson Disk Diagonalization:  ConvIn= 1.00D-03 SkipCon=T Conv= 1.00D-03.
 Max sub-space:   480 initial roots:    24 roots to seek:     1 dimension of matrix:          240
 Iteration     1 Dimension    24 NMult     0 NNew     24
 CISAX will form    24 AO SS matrices at one time.
 NMat=    24 NSing=    12 JSym2X= 2.
 New state      1 was old state      2
 Excitation Energies [eV] at current iteration:
 Root      1 :     8.480185612935099
 Root      2 :    10.133272325143000
 Root      3 :    10.300091203562813
 Root      4 :    10.684456354884261
 Root      5 :    11.218064127285400
 Root      6 :    11.924604713091302
 Root      7 :    11.970096941530748
 Root      8 :    12.092520182740417
 Root      9 :    12.167323756849559
 Root     10 :    13.018720737864054
 Root     11 :    13.122208941461437
 Root     12 :    13.771659487950298
 Root     13 :    14.033176594661127
 Root     14 :    14.416970322988520
 Root     15 :    14.702850467133082
 Root     16 :    14.946637664229783
 Root     17 :    15.076147516745568
 Root     18 :    15.225781535522088
 Root     19 :    15.443855213823280
 Root     20 :    16.126837282731781
 Root     21 :    16.768684675579241
 Root     22 :    17.267446123577585
 Root     23 :    18.854148598429838
 Root     24 :    21.338400402386508
 Iteration     2 Dimension    48 NMult    24 NNew     24
 CISAX will form    24 AO SS matrices at one time.
 NMat=    24 NSing=    12 JSym2X= 2.
 Root      1 not converged, maximum delta is    0.051664043313967
 Excitation Energies [eV] at current iteration:
 Root      1 :     8.138659156702344   Change is   -0.341526456232755
 Root      2 :     9.655008208344983   Change is   -0.645082995217829
 Root      3 :    10.017271457801833   Change is   -0.116000867341167
 Root      4 :    10.138113425444660   Change is   -0.546342929439602
 Root      5 :    10.761578928943267   Change is   -0.456485198342134
 Root      6 :    11.388818656223034   Change is   -0.778505100626525
 Root      7 :    11.757744113594946   Change is   -0.212352827935803
 Root      8 :    11.795673053180879   Change is   -0.128931659910423
 Root      9 :    11.935695348939868   Change is   -0.156824833800549
 Root     10 :    12.644525320854028   Change is   -0.374195417010027
 Root     11 :    13.089788627810737   Change is   -0.032420313650700
 Root     12 :    13.386752356469648   Change is   -0.384907131480649
 Root     13 :    13.865165017387561   Change is   -0.168011577273567
 Root     14 :    14.304940868093901   Change is   -0.112029454894620
 Root     15 :    14.353212579101490   Change is   -0.593425085128292
 Root     16 :    14.556974658302936   Change is   -0.145875808830146
 Root     17 :    14.990219536226460   Change is   -0.085927980519107
 Root     18 :    15.151916630761114   Change is   -0.073864904760975
 Root     19 :    15.270916885609319   Change is   -0.172938328213961
 Root     20 :    15.722064099114968   Change is   -0.404773183616811
 Root     21 :    15.866262402010952   Change is   -5.472138000375556
 Root     22 :    16.326240759376262   Change is   -0.442443916202979
 Root     23 :    16.946202160483328   Change is   -0.321243963094257
 Root     24 :    17.713746633184257   Change is   -1.140401965245579
 Iteration     3 Dimension    54 NMult    48 NNew      6
 CISAX will form     6 AO SS matrices at one time.
 NMat=     6 NSing=     3 JSym2X= 2.
 Root      1 not converged, maximum delta is    0.005557888758457
 Excitation Energies [eV] at current iteration:
 Root      1 :     8.134655682476318   Change is   -0.004003474226026
 Root      2 :     9.414843006473909   Change is   -0.240165201871075
 Root      3 :    10.017000493775727   Change is   -0.000270964026106
 Root      4 :    10.115910441213899   Change is   -0.022202984230760
 Root      5 :    11.794473585277226   Change is   -0.001199467903653
 Root      6 :    11.930780433079448   Change is   -0.004914915860421
 Iteration     4 Dimension    60 NMult    54 NNew      6
 CISAX will form     6 AO SS matrices at one time.
 NMat=     6 NSing=     3 JSym2X= 2.
 Root      1 has converged.
 Excitation Energies [eV] at current iteration:
 Root      1 :     8.134643189132541   Change is   -0.000012493343776
 Root      2 :     9.381422998475053   Change is   -0.033420007998856
 Root      3 :    10.016999016815237   Change is   -0.000001476960490
 Root      4 :    10.114502695352259   Change is   -0.001407745861641
 Root      5 :    11.787220481753021   Change is   -0.007253103524204
 Root      6 :    11.930393064358263   Change is   -0.000387368721184
 Convergence achieved on expansion vectors.
 1PDM for each excited state written to RWF  633
 Ground to excited state transition densities written to RWF  633

 ***********************************************************************
 Stability analysis using <AA,BB:AA,BB> singles matrix:
 ***********************************************************************

 Eigenvectors of the stability matrix:
 
 Eigenvector   1:      Triplet-B1   Eigenvalue= 0.2989426  <S**2>=2.000
       5 ->  6         0.65132
       5 -> 11        -0.22972
 The wavefunction is stable under the perturbations considered.
 Leave Link  914 at Wed Sep  3 17:01:07 2025, MaxMem= 12348030976 cpu:              28.3 elap:               3.9
 (Enter /home/hhratchian/gaussian/gdv-20250101-j30+/gdv/l508.exe)
 The wavefunction is already stable.
 Leave Link  508 at Wed Sep  3 17:01:07 2025, MaxMem= 12348030976 cpu:               0.6 elap:               0.4
 (Enter /home/hhratchian/gaussian/gdv-20250101-j30+/gdv/l601.exe)
 Copying SCF densities to generalized density rwf, IOpCl= 0 IROHF=0.
 
 **********************************************************************
 
               Population analysis using the SCF Density.
 
 **********************************************************************
 
 Orbital symmetries:
       Occupied  (A1) (A1) (B2) (A1) (B1)
       Virtual   (A1) (B2) (A1) (B1) (B2) (A1) (B2) (A1) (B2) (A1)
                 (B1) (A1) (A2) (A1) (B1) (B2) (A1) (B1) (B2) (A2)
                 (A1) (A1) (B2) (A1)
 The electronic state is 1-A1.
 Alpha  occ. eigenvalues --      -20.57117      -1.37562      -0.76279      -0.57584      -0.51114
 Alpha virt. eigenvalues --        0.14859       0.21388       0.25049       0.25179       0.38418
 Alpha virt. eigenvalues --        0.39156       1.23960       1.29927       1.32180       1.36543
 Alpha virt. eigenvalues --        1.40556       1.45137       1.77947       1.87019       1.94401
 Alpha virt. eigenvalues --        2.55869       2.62741       2.98467       2.99603       3.07844
 Alpha virt. eigenvalues --        3.47502       3.85283       3.97383       4.41763
          Condensed to atoms (all electrons):
               1          2          3
     1  O    8.100608   0.317236   0.317236
     2  H    0.317236   0.340138  -0.024914
     3  H    0.317236  -0.024914   0.340138
 Mulliken charges:
               1
     1  O   -0.735080
     2  H    0.367540
     3  H    0.367540
 Sum of Mulliken charges=  -0.00000
 Mulliken charges with hydrogens summed into heavy atoms:
               1
     1  O   -0.000000
 Electronic spatial extent (au):  <R**2>=             18.9259
 Charge=             -0.0000 electrons
 Dipole moment (field-independent basis, Debye):
    X=             -0.0000    Y=              0.0000    Z=             -2.0954  Tot=              2.0954
 Quadrupole moment (field-independent basis, Debye-Ang):
   XX=             -7.5216   YY=             -3.9776   ZZ=             -6.4742
   XY=              0.0000   XZ=              0.0000   YZ=             -0.0000
 Traceless Quadrupole moment (field-independent basis, Debye-Ang):
   XX=             -1.5305   YY=              2.0135   ZZ=             -0.4830
   XY=              0.0000   XZ=              0.0000   YZ=             -0.0000
 Octapole moment (field-independent basis, Debye-Ang**2):
  XXX=              0.0000  YYY=              0.0000  ZZZ=             -1.5234  XYY=             -0.0000
  XXY=             -0.0000  XXZ=             -0.4554  XZZ=              0.0000  YZZ=              0.0000
  YYZ=             -1.3581  XYZ=             -0.0000
 Hexadecapole moment (field-independent basis, Debye-Ang**3):
 XXXX=             -6.6480 YYYY=             -5.1982 ZZZZ=             -6.8891 XXXY=             -0.0000
 XXXZ=             -0.0000 YYYX=              0.0000 YYYZ=             -0.0000 ZZZX=             -0.0000
 ZZZY=             -0.0000 XXYY=             -2.2810 XXZZ=             -2.2889 YYZZ=             -1.8143
 XXYZ=             -0.0000 YYXZ=              0.0000 ZZXY=              0.0000
 N-N=           9.643579 E-N=        -199.678156  KE=          75.927601
 Symmetry A1   KE=          67.835045
 Symmetry A2   KE=          -0.000000
 Symmetry B1   KE=           4.443984
 Symmetry B2   KE=           3.648572
 No NMR shielding tensors so no spin-rotation constants.
 Leave Link  601 at Wed Sep  3 17:01:10 2025, MaxMem= 12348030976 cpu:              22.6 elap:               2.3
 (Enter /home/hhratchian/gaussian/gdv-20250101-j30+/gdv/local/l9999.exe)
 Unable to Open any file for archive entry.
 1\1\GINC-NODE010\Stability\RHF\6-31+G(d,p)\H2O1\AABOUTAKA\03-Sep-2025\
 0\\#p HF/6-31+G(d,p) stable=opt scf=novaracc guess=mix\\H2O — HF/6-3
 1+G(d,p) q=0 m=1 [1/3: Stability]\\0,1\O,0,0.,0.,0.\H,0,0.758602,0.,0.
 504284\H,0,-0.758602,0.,0.504284\\Version=ES64L-GDVRevJ.30+\State=1-A1
 \HF=-76.0282531\RMSD=3.640e-09\Dipole=0.,0.,0.8243827\Quadrupole=1.497
 0052,-1.1378877,-0.3591174,0.,0.,0.\PG=C02V [C2(O1),SGV(H2)]\\@
 The archive entry for this job was punched.


 NATURE GIVES TO EVERY TIME AND SEASON SOME BEAUTY OF ITS OWN.

                                                    --DICKENS
 Job cpu time:       0 days  0 hours  2 minutes 48.7 seconds.
 Elapsed time:       0 days  0 hours  0 minutes 23.8 seconds.
 File lengths (MBytes):  RWF=     22 Int=      0 D2E=      0 Chk=      2 Scr=      2
 Normal termination of Gaussian DV at Wed Sep  3 17:01:11 2025.
 Initial command:
 /home/hhratchian/gaussian/gdv-20250101-j30+/gdv/local/l1.exe "/scratch/aaboutaka/1590285/Gau-3296839.inp" -scrdir="/scratch/aaboutaka/1590285/"
 Default is to use a total of  14 processors:
                               14 via shared-memory
                                1 via Linda
 Entering Link 1 = /home/hhratchian/gaussian/gdv-20250101-j30+/gdv/local/l1.exe PID=   3297048.
  
 Copyright (c) 1988-2024, Gaussian, Inc.  All Rights Reserved.
  
 This is the private, development version of
 the Gaussian(R) DV system of programs. It is based on
 the Gaussian(R) 16 system (copyright 2016, Gaussian, Inc.),
 the Gaussian(R) 09 system (copyright 2009, Gaussian, Inc.),
 the Gaussian(R) 03 system (copyright 2003, Gaussian, Inc.),
 the Gaussian(R) 98 system (copyright 1998, Gaussian, Inc.),
 the Gaussian(R) 94 system (copyright 1995, Gaussian, Inc.),
 the Gaussian 92(TM) system (copyright 1992, Gaussian, Inc.),
 the Gaussian 90(TM) system (copyright 1990, Gaussian, Inc.),
 the Gaussian 88(TM) system (copyright 1988, Gaussian, Inc.),
 the Gaussian 86(TM) system (copyright 1986, Carnegie Mellon
 University), and the Gaussian 82(TM) system (copyright 1983,
 Carnegie Mellon University). Gaussian is a federally registered
 trademark of Gaussian, Inc.
  
 This software contains proprietary and confidential information,
 including trade secrets, belonging to Gaussian, Inc.
  
 This software is provided under written license and may be
 used, copied, transmitted, or stored only in accord with that
 written license.
  
 The following legend is applicable only to US Government
 contracts under FAR:
  
                    RESTRICTED RIGHTS LEGEND
  
 Use, reproduction and disclosure by the US Government is
 subject to restrictions as set forth in subparagraphs (a)
 and (c) of the Commercial Computer Software - Restricted
 Rights clause in FAR 52.227-19.
  
 Gaussian, Inc.
 340 Quinnipiac St., Bldg. 40, Wallingford CT 06492
  
  
 ---------------------------------------------------------------
 Warning -- This program may not be used in any manner that
 competes with the business of Gaussian, Inc. or will provide
 assistance to any competitor of Gaussian, Inc.  The licensee
 of this program is prohibited from giving any competitor of
 Gaussian, Inc. access to this program.  By using this program,
 the user acknowledges that Gaussian, Inc. is engaged in the
 business of creating and licensing software in the field of
 computational chemistry and represents and warrants to the
 licensee that it is not a competitor of Gaussian, Inc. and that
 it will not use this program in any manner prohibited above.
 ---------------------------------------------------------------
  

 Cite this work as:
 Gaussian Development Version, Revision J.30+,
 M. J. Frisch, G. W. Trucks, G. Scalmani, J. R. Cheeseman, X. Li, 
 J. Bloino, B. G. Janesko, A. V. Marenich, J. Zheng, F. Lipparini, 
 A. Jenkins, A. Liu, H. Liu, H. B. Schlegel, G. E. Scuseria, 
 M. A. Robb, V. Barone, G. A. Petersson, H. Nakatsuji, B. Mennucci, 
 C. Adamo, N. Rega, M. Caricato, H. P. Hratchian, J. V. Ortiz, 
 F. Pawlowski, A. F. Izmaylov, H. Hu, C. Liao, J. L. Sonnenberg, 
 D. Williams-Young, F. Ding, R. Gomperts, F. Egidi, J. Goings, 
 B. Peng, A. Petrone, T. Henderson, D. Ranasinghe, V. G. Zakrzewski, 
 J. Gao, G. Zheng, W. Liang, M. Hada, M. Ehara, K. Toyota, R. Fukuda, 
 J. Hasegawa, M. Ishida, T. Nakajima, Y. Honda, O. Kitao, H. Nakai, 
 T. Vreven, K. Throssell, J. A. Montgomery, Jr., J. E. Peralta, 
 F. Ogliaro, M. J. Bearpark, J. J. Heyd, E. N. Brothers, K. N. Kudin, 
 V. N. Staroverov, T. A. Keith, R. Kobayashi, J. Normand, 
 K. Raghavachari, A. P. Rendell, J. C. Burant, S. S. Iyengar, 
 M. Cossi, J. M. Millam, M. Klene, R. Cammi, R. L. Martin, O. Farkas, 
 J. B. Foresman, and D. J. Fox, Gaussian, Inc., Wallingford CT, 2024.
 
 *******************************************
 Gaussian DV:  ES64L-GDVRevJ.30+ 18-Dec-2024
                  3-Sep-2025 
 *******************************************
 %chk=H2O_HF_6-31+Gdp_q0_m1.chk
 ----------------------------------------------------------------------
 #p HF guess=read chkbasis geom=allcheck Opt Freq SCF=(fermi, novaracc)
  int=superfinegrid
 ----------------------------------------------------------------------
 1/18=20,19=15,29=7,38=1/1,3;
 2/9=110,12=2/2;
 3/5=7,6=2,11=9,14=-4,25=1,30=1,67=1,71=1,75=-7,116=-2/1,2,3;
 4/5=1/1;
 5/5=2,22=13,38=6/2;
 6/7=2,8=2,9=2,10=2,28=1/1;
 7//1,2,3,16;
 1/18=20,19=15/3(2);
 2/9=110/2;
 99//99;
 2/9=110/2;
 3/5=7,6=1,11=9,14=-2,25=1,30=1,71=1,75=-7,82=7,187=7/1,2,3;
 4/5=5,16=3,69=1/1;
 5/5=2,22=13,38=1/2;
 7//1,2,3,16;
 1/18=20,19=15/3(-5);
 2/9=110/2;
 6/7=2,8=2,9=2,10=2,19=2,28=1/1;
 99/9=1/99;
 Leave Link    1 at Wed Sep  3 17:01:12 2025, MaxMem=           0 cpu:               2.6 elap:               1.3
 (Enter /home/hhratchian/gaussian/gdv-20250101-j30+/gdv/local/l101.exe)
 
  Hrant - IAPOps =                         0
  Hrant - IAPOp1 =                         0
  Hrant - IAPOp2 =                         0
  Hrant - DoAP   =   F
 
 Structure from the checkpoint file:  "H2O_HF_6-31+Gdp_q0_m1.chk"
 -----------------------------------------------
 H2O — HF/6-31+G(d,p) q=0 m=1 [1/3: Stability]
 -----------------------------------------------
 Charge =     0 Multiplicity =     1
 Z-Matrix found in chk file.
 O,0,0.,0.,0.
 H,0,0.758602,0.,0.504284
 H,0,-0.758602,0.,0.504284
 
 Recover connectivity data from disk.
 Initializing the GIC definitions file.
 ITRead=  0  0  0
 MicOpt= -1 -1 -1
 NAtoms=      3 NQM=        3 NQMF=       0 NMMI=      0 NMMIF=      0
                NMic=       0 NMicF=      0.
                    Isotopes and Nuclear Properties:
 (Nuclear quadrupole moments (NQMom) in fm**2, nuclear magnetic moments (NMagM)
  in nuclear magnetons)

  Atom         1           2           3
 IAtWgt=          16           1           1
 AtmWgt=  15.9949146   1.0078250   1.0078250
 NucSpn=           0           1           1
 AtZEff=    5.600000    1.000000    1.000000
 NQMom=    0.0000000   0.0000000   0.0000000
 NMagM=    0.0000000   2.7928460   2.7928460
 AtZNuc=   8.0000000   1.0000000   1.0000000
 Leave Link  101 at Wed Sep  3 17:02:35 2025, MaxMem= 12348030976 cpu:              82.3 elap:              82.2
 (Enter /home/hhratchian/gaussian/gdv-20250101-j30+/gdv/l103.exe)

 GradGradGradGradGradGradGradGradGradGradGradGradGradGradGradGradGradGrad
 Berny optimization.
 Initialization pass.
                           ----------------------------
                           !    Initial Parameters    !
                           ! (Angstroms and Degrees)  !
 --------------------------                            --------------------------
 ! Name  Definition              Value          Derivative Info.                !
 --------------------------------------------------------------------------------
 ! R1    R(1,2)                  0.9109         estimate D2E/DX2                !
 ! R2    R(1,3)                  0.9109         estimate D2E/DX2                !
 ! A1    A(2,1,3)              112.7717         estimate D2E/DX2                !
 --------------------------------------------------------------------------------
 Trust Radius=3.00D-01 FncErr=1.00D-07 GrdErr=1.00D-07 EigMax=2.50D+02 EigMin=1.00D-04
 Number of steps in this run=     20 maximum allowed number of steps=    100.
 GradGradGradGradGradGradGradGradGradGradGradGradGradGradGradGradGradGrad

 Leave Link  103 at Wed Sep  3 17:02:36 2025, MaxMem= 12348030976 cpu:               1.1 elap:               0.5
 (Enter /home/hhratchian/gaussian/gdv-20250101-j30+/gdv/l202.exe)
                          Input orientation:                          
 ---------------------------------------------------------------------
 Center     Atomic      Atomic             Coordinates (Angstroms)
 Number     Number       Type             X           Y           Z
 ---------------------------------------------------------------------
      1          8           0       -0.000000   -0.000000    0.000000
      2          1           0        0.758602    0.000000    0.504284
      3          1           0       -0.758602   -0.000000    0.504284
 ---------------------------------------------------------------------
                    Distance matrix (angstroms):
                    1          2          3
     1  O    0.000000
     2  H    0.910922   0.000000
     3  H    0.910922   1.517204   0.000000
 Stoichiometry    H2O
 Framework group  C2V[C2(O),SGV(H2)]
 Deg. of freedom     2
 Full point group                 C2V     NOp   4
 RotChk:  IX=0 Diff= 7.38D-16
 Largest Abelian subgroup         C2V     NOp   4
 Largest concise Abelian subgroup C2      NOp   2
                         Standard orientation:                         
 ---------------------------------------------------------------------
 Center     Atomic      Atomic             Coordinates (Angstroms)
 Number     Number       Type             X           Y           Z
 ---------------------------------------------------------------------
      1          8           0       -0.000000    0.000000    0.100857
      2          1           0        0.000000    0.758602   -0.403427
      3          1           0       -0.000000   -0.758602   -0.403427
 ---------------------------------------------------------------------
 Rotational constants (GHZ):        1110.1894251         435.6864908         312.8935057
 Leave Link  202 at Wed Sep  3 17:02:37 2025, MaxMem= 12348030976 cpu:               2.3 elap:               0.5
 (Enter /home/hhratchian/gaussian/gdv-20250101-j30+/gdv/local/l301.exe)
 Basis read from chk: "H2O_HF_6-31+Gdp_q0_m1.chk" (6D, 7F)
 No pseudopotential information found on chk file.
 There are    14 symmetry adapted cartesian basis functions of A1  symmetry.
 There are     2 symmetry adapted cartesian basis functions of A2  symmetry.
 There are     5 symmetry adapted cartesian basis functions of B1  symmetry.
 There are     8 symmetry adapted cartesian basis functions of B2  symmetry.
 There are    14 symmetry adapted basis functions of A1  symmetry.
 There are     2 symmetry adapted basis functions of A2  symmetry.
 There are     5 symmetry adapted basis functions of B1  symmetry.
 There are     8 symmetry adapted basis functions of B2  symmetry.
    29 basis functions,    46 primitive gaussians,    29 cartesian basis functions
     5 alpha electrons        5 beta electrons
       nuclear repulsion energy         9.6435792538 Hartrees.
 IExCor=         0 DFT=F Ex=HF Corr=None N6=None ScaHFX=  1.000000
 ScaDFX=  1.000000  1.000000  1.000000  1.000000  1.000000  0.000000
 ScaDFX=  0.000000  0.000000  0.000000  0.000000  0.000000  0.000000
 Grid=SuperFine IRanWt=     -1 IRanGd=            0 ICorTp=0 IEDCtl=  2004
 NAtoms=    3 NActive=    3 NUniq=    2 SFac= 2.25D+00 NAtFMM=   60 NAOKFM=F Big=F
 Integral buffers will be    131072 words long.
 Raffenetti 1 integral format.
 Two-electron integral symmetry is turned on.
 No density basis found on file 200724.
 Leave Link  301 at Wed Sep  3 17:02:38 2025, MaxMem= 12348030976 cpu:               1.7 elap:               1.1
 (Enter /home/hhratchian/gaussian/gdv-20250101-j30+/gdv/l302.exe)
 NPDir=0 NMtPBC=     1 NCelOv=     1 NCel=       1 NClECP=     1 NCelD=      1
         NCelK=      1 NCelE2=     1 NClLst=     1 CellRange=     0.0.
 One-electron integrals computed using PRISM.
 One-electron integral symmetry used in STVInt
 NBasis=    29 RedAO= T EigKep=  1.62D-02  NBF=    14     2     5     8
 NBsUse=    29 1.00D-06 EigRej= -1.00D+00 NBFU=    14     2     5     8
 Leave Link  302 at Wed Sep  3 17:02:40 2025, MaxMem= 12348030976 cpu:              17.6 elap:               2.1
 (Enter /home/hhratchian/gaussian/gdv-20250101-j30+/gdv/l303.exe)
 DipDrv:  MaxL=1.
 Leave Link  303 at Wed Sep  3 17:02:41 2025, MaxMem= 12348030976 cpu:               1.6 elap:               0.6
 (Enter /home/hhratchian/gaussian/gdv-20250101-j30+/gdv/l401.exe)
 Initial guess from the checkpoint file:  "H2O_HF_6-31+Gdp_q0_m1.chk"
 B after Tr=     0.000000   -0.000000    0.000000
         Rot=    1.000000   -0.000000   -0.000000   -0.000000 Ang=   0.00 deg.
 AO Guess basis will be translated and rotated to current coordinates.
 JPrj=2 DoOrth=T DoCkMO=T.
 Initial guess orbital symmetries:
       Occupied  (A1) (A1) (B2) (A1) (B1)
       Virtual   (A1) (B2) (A1) (B1) (B2) (A1) (B2) (A1) (B2) (A1)
                 (B1) (A1) (A2) (A1) (B1) (B2) (A1) (B1) (B2) (A2)
                 (A1) (A1) (B2) (A1)
 The electronic state of the initial guess is 1-A1.
 Leave Link  401 at Wed Sep  3 17:02:43 2025, MaxMem= 12348030976 cpu:               3.5 elap:               1.4
 (Enter /home/hhratchian/gaussian/gdv-20250101-j30+/gdv/local/l502.exe)
 Keep R1 ints in memory in symmetry-blocked form, NReq=2569172.
 FoFCou: FMM=F IPFlag=           0 FMFlag=           0 FMFlg1=           0
         NFxFlg=           0 DoJE=F BraDBF=F KetDBF=F FulRan=T
         wScrn=  0.000000 ICntrl=       600 IOpCl=  0 I1Cent=           0 NGrid=           0
         NMat0=    1 NMatS0=    435 NMatT0=    0 NMatD0=    1 NMtDS0=    0 NMtDT0=    0
 Petite list used in FoFCou.
 Closed shell SCF:
 Using DIIS extrapolation, IDIIS=    10.
 NGot= 12348030976 LenX= 12347999701 LenY= 12347998419
 Requested convergence on RMS density matrix=1.00D-08 within 128 cycles.
 Requested convergence on MAX density matrix=1.00D-06.
 Requested convergence on             energy=1.00D-06.
 Level shift goal  0.100 maximum shift  0.100.
 No special actions if energy rises.
 Dynamic level shift is on during FON iterations.
 
  Hrant - CycOpn.
 

 Cycle   1  Pass 1  IDiag  1:
 E= -76.0282531423929    
 DIIS: error= 8.06D-10 at cycle   1 NSaved=   1.
 NSaved= 1 IEnMin= 1 EnMin= -76.0282531423929     IErMin= 1 ErrMin= 8.06D-10
 ErrMax= 8.06D-10  0.00D+00 EMaxC= 1.00D+00 BMatC= 7.87D-18 BMatP= 7.87D-18
 Rises=F IDIUse=1 WtCom= 1.00D+00 WtEn= 0.00D+00
 Coeff-Com:  0.100D+01
 Coeff:      0.100D+01
 Gap=     0.660 Goal=     0.100 Shift=    0.000
 RMSDP=1.86D-10 MaxDP=1.63D-09              OVMax= 2.31D-09

 SCF Done:  E(RHF) =  -76.0282531424     A.U. after    1 cycles
            NFock=  1  Conv=0.19D-09     -V/T= 2.0013
 KE=          75.927601 PE=        -199.678156 EE=          38.078723
 Leave Link  502 at Wed Sep  3 17:02:46 2025, MaxMem= 12348030976 cpu:              20.5 elap:               3.0
 (Enter /home/hhratchian/gaussian/gdv-20250101-j30+/gdv/l601.exe)
 Copying SCF densities to generalized density rwf, IOpCl= 0 IROHF=0.
 
 **********************************************************************
 
               Population analysis using the SCF Density.
 
 **********************************************************************
 
 Orbital symmetries:
       Occupied  (A1) (A1) (B2) (A1) (B1)
       Virtual   (A1) (B2) (A1) (B1) (B2) (A1) (B2) (A1) (B2) (A1)
                 (B1) (A1) (A2) (A1) (B1) (B2) (A1) (B1) (B2) (A2)
                 (A1) (A1) (B2) (A1)
 The electronic state is 1-A1.
 Alpha  occ. eigenvalues --      -20.57117      -1.37562      -0.76279      -0.57584      -0.51114
 Alpha virt. eigenvalues --        0.14859       0.21388       0.25049       0.25179       0.38418
 Alpha virt. eigenvalues --        0.39156       1.23960       1.29927       1.32180       1.36543
 Alpha virt. eigenvalues --        1.40556       1.45137       1.77947       1.87019       1.94401
 Alpha virt. eigenvalues --        2.55869       2.62741       2.98467       2.99603       3.07844
 Alpha virt. eigenvalues --        3.47502       3.85283       3.97383       4.41763
          Condensed to atoms (all electrons):
               1          2          3
     1  O    8.100608   0.317236   0.317236
     2  H    0.317236   0.340138  -0.024914
     3  H    0.317236  -0.024914   0.340138
 Mulliken charges:
               1
     1  O   -0.735080
     2  H    0.367540
     3  H    0.367540
 Sum of Mulliken charges=  -0.00000
 Mulliken charges with hydrogens summed into heavy atoms:
               1
     1  O   -0.000000
 Electronic spatial extent (au):  <R**2>=             18.9259
 Charge=             -0.0000 electrons
 Dipole moment (field-independent basis, Debye):
    X=             -0.0000    Y=              0.0000    Z=             -2.0954  Tot=              2.0954
 Quadrupole moment (field-independent basis, Debye-Ang):
   XX=             -7.5216   YY=             -3.9776   ZZ=             -6.4742
   XY=              0.0000   XZ=              0.0000   YZ=              0.0000
 Traceless Quadrupole moment (field-independent basis, Debye-Ang):
   XX=             -1.5305   YY=              2.0135   ZZ=             -0.4830
   XY=              0.0000   XZ=              0.0000   YZ=              0.0000
 Octapole moment (field-independent basis, Debye-Ang**2):
  XXX=              0.0000  YYY=             -0.0000  ZZZ=             -1.5234  XYY=             -0.0000
  XXY=              0.0000  XXZ=             -0.4554  XZZ=              0.0000  YZZ=             -0.0000
  YYZ=             -1.3581  XYZ=             -0.0000
 Hexadecapole moment (field-independent basis, Debye-Ang**3):
 XXXX=             -6.6480 YYYY=             -5.1982 ZZZZ=             -6.8891 XXXY=             -0.0000
 XXXZ=             -0.0000 YYYX=              0.0000 YYYZ=             -0.0000 ZZZX=             -0.0000
 ZZZY=             -0.0000 XXYY=             -2.2810 XXZZ=             -2.2889 YYZZ=             -1.8143
 XXYZ=             -0.0000 YYXZ=              0.0000 ZZXY=              0.0000
 N-N=           9.643579 E-N=        -199.678156  KE=          75.927601
 Symmetry A1   KE=          67.835045
 Symmetry A2   KE=           0.000000
 Symmetry B1   KE=           4.443984
 Symmetry B2   KE=           3.648572
 No NMR shielding tensors so no spin-rotation constants.
 Leave Link  601 at Wed Sep  3 17:02:48 2025, MaxMem= 12348030976 cpu:              20.7 elap:               2.1
 (Enter /home/hhratchian/gaussian/gdv-20250101-j30+/gdv/l701.exe)
 ... and contract with generalized density number  0.
 Compute integral first derivatives.
 Leave Link  701 at Wed Sep  3 17:02:50 2025, MaxMem= 12348030976 cpu:              21.0 elap:               2.1
 (Enter /home/hhratchian/gaussian/gdv-20250101-j30+/gdv/l702.exe)
 L702 exits ... SP integral derivatives will be done elsewhere.
 Leave Link  702 at Wed Sep  3 17:02:51 2025, MaxMem= 12348030976 cpu:               1.1 elap:               0.7
 (Enter /home/hhratchian/gaussian/gdv-20250101-j30+/gdv/l703.exe)
 Integral derivatives from FoFJK, PRISM(SPDF).
 Compute integral first derivatives, UseDBF=F ICtDFT=           0.
 Calling FoFJK, ICntrl=      2127 FMM=F ISym2X=1 I1Cent= 0 IOpClX= 0 NMat=1 NMatS=1 NMatT=0.
 FoFJK:  IHMeth= 1 ICntrl=    2127 DoSepK=F KAlg= 0 I1Cent=           0 FoldK=F
 IRaf=         0 NMat=       1 IRICut=       1 DoRegI=T DoRafI=F ISym2E= 1 IDoP0=0 IntGTp=1.
 FoFCou: FMM=F IPFlag=           0 FMFlag=      100000 FMFlg1=         800
         NFxFlg=           0 DoJE=F BraDBF=F KetDBF=F FulRan=T
         wScrn=  0.000000 ICntrl=      2127 IOpCl=  0 I1Cent=           0 NGrid=           0
         NMat0=    1 NMatS0=      1 NMatT0=    0 NMatD0=    1 NMtDS0=    0 NMtDT0=    0
 Petite list used in FoFCou.
 Leave Link  703 at Wed Sep  3 17:02:55 2025, MaxMem= 12348030976 cpu:              33.4 elap:               3.7
 (Enter /home/hhratchian/gaussian/gdv-20250101-j30+/gdv/l716.exe)
 Dipole        =-5.58186438D-17 0.00000000D+00-8.24382661D-01
 ***** Axes restored to original set *****
 -------------------------------------------------------------------
 Center     Atomic                   Forces (Hartrees/Bohr)
 Number     Number              X              Y              Z
 -------------------------------------------------------------------
      1        8          -0.000000000   -0.000000000   -0.056650097
      2        1           0.029260698    0.000000000    0.028325049
      3        1          -0.029260698    0.000000000    0.028325049
 -------------------------------------------------------------------
 Cartesian Forces:  Max     0.056650097 RMS     0.026928356
 Leave Link  716 at Wed Sep  3 17:02:56 2025, MaxMem= 12348030976 cpu:               1.1 elap:               0.7
 (Enter /home/hhratchian/gaussian/gdv-20250101-j30+/gdv/l103.exe)

 GradGradGradGradGradGradGradGradGradGradGradGradGradGradGradGradGradGrad
 Berny optimization.
 FormGI is forming the generalized inverse of G from B-inverse, IUseBI=4.
 NTrRot=    -1 NTRed=     3 NAtoms=     3 NSkip=     0 NRank=     3 IsLin=F EigSml=8.5452D-01
 Internal  Forces:  Max     0.040048526 RMS     0.033514157
 Search for a local minimum.
 Step number   1 out of a maximum of   20
 All quantities printed in internal units (Hartrees-Bohrs-Radians)
 RMS Force = .33514D-01 SwitMx=.10000D-02 MixMth= 1
 Mixed Optimization -- RFO/linear search
 Second derivative matrix not updated -- first step.
 The second derivative matrix:
                          R1        R2        A1
           R1           0.67525
           R2           0.00000   0.67525
           A1           0.00000   0.00000   0.16000
 ITU=  0
     Eigenvalues ---    0.16000   0.67525   0.67525
 RFO step:  Lambda=-5.68751812D-03 EMin= 1.60000000D-01
 Linear search not attempted -- first point.
 GrdOpt: GIC=T ITstSp=  0 NP=   1 DidLin=F DidDIS=F IDoGRo=0 IDoRot=0
         ISwap=1 XLin= 0.000 DXMaxT= 0.300
 Iteration  1 RMS(Cart)=  0.02454519 RMS(Int)=  0.00179023
 Iteration  2 RMS(Cart)=  0.00114260 RMS(Int)=  0.00000157
 Iteration  3 RMS(Cart)=  0.00000060 RMS(Int)=  0.00000000
 ClnCor:  largest displacement from symmetrization is 1.29D-15 for atom     3.
 Variable       Old X    -DE/DX   Delta X   Delta X   Delta X     New X
                                 (Linear)    (Quad)   (Total)
    R1        1.72139   0.04005   0.00000   0.05881   0.05881   1.78021
    R2        1.72139   0.04005   0.00000   0.05881   0.05881   1.78021
    A1        1.96824  -0.01272   0.00000  -0.07678  -0.07678   1.89146
         Item               Value     Threshold  Converged?
 Maximum Force            0.040049     0.000450     NO 
 RMS     Force            0.033514     0.000300     NO 
 Maximum Displacement     0.059155     0.001800     NO 
 RMS     Displacement     0.042628     0.001200     NO 
 Predicted change in Energy=-2.880196D-03
 Lowest energy point so far.  Saving SCF results.
 GradGradGradGradGradGradGradGradGradGradGradGradGradGradGradGradGradGrad

 Leave Link  103 at Wed Sep  3 17:02:57 2025, MaxMem= 12348030976 cpu:               2.2 elap:               1.0
 (Enter /home/hhratchian/gaussian/gdv-20250101-j30+/gdv/l202.exe)
                          Input orientation:                          
 ---------------------------------------------------------------------
 Center     Atomic      Atomic             Coordinates (Angstroms)
 Number     Number       Type             X           Y           Z
 ---------------------------------------------------------------------
      1          8           0       -0.000000    0.000000   -0.031303
      2          1           0        0.763927    0.000000    0.519936
      3          1           0       -0.763927   -0.000000    0.519936
 ---------------------------------------------------------------------
                    Distance matrix (angstroms):
                    1          2          3
     1  O    0.000000
     2  H    0.942045   0.000000
     3  H    0.942045   1.527855   0.000000
 Stoichiometry    H2O
 Framework group  C2V[C2(O),SGV(H2)]
 Deg. of freedom     2
 Full point group                 C2V     NOp   4
 RotChk:  IX=0 Diff= 1.30D-15
 Largest Abelian subgroup         C2V     NOp   4
 Largest concise Abelian subgroup C2      NOp   2
                         Standard orientation:                         
 ---------------------------------------------------------------------
 Center     Atomic      Atomic             Coordinates (Angstroms)
 Number     Number       Type             X           Y           Z
 ---------------------------------------------------------------------
      1          8           0       -0.000000    0.000000    0.110248
      2          1           0       -0.000000    0.763927   -0.440991
      3          1           0       -0.000000   -0.763927   -0.440991
 ---------------------------------------------------------------------
 Rotational constants (GHZ):         929.1114133         429.6334024         293.7838607
 Leave Link  202 at Wed Sep  3 17:02:58 2025, MaxMem= 12348030976 cpu:               2.2 elap:               0.5
 (Enter /home/hhratchian/gaussian/gdv-20250101-j30+/gdv/local/l301.exe)
 Basis read from rwf:  (6D, 7F)
 No pseudopotential information found on rwf file.
 There are    14 symmetry adapted cartesian basis functions of A1  symmetry.
 There are     2 symmetry adapted cartesian basis functions of A2  symmetry.
 There are     5 symmetry adapted cartesian basis functions of B1  symmetry.
 There are     8 symmetry adapted cartesian basis functions of B2  symmetry.
 There are    14 symmetry adapted basis functions of A1  symmetry.
 There are     2 symmetry adapted basis functions of A2  symmetry.
 There are     5 symmetry adapted basis functions of B1  symmetry.
 There are     8 symmetry adapted basis functions of B2  symmetry.
    29 basis functions,    46 primitive gaussians,    29 cartesian basis functions
     5 alpha electrons        5 beta electrons
       nuclear repulsion energy         9.3340698274 Hartrees.
 IExCor=         0 DFT=F Ex=HF Corr=None N6=None ScaHFX=  1.000000
 ScaDFX=  1.000000  1.000000  1.000000  1.000000  1.000000  0.000000
 ScaDFX=  0.000000  0.000000  0.000000  0.000000  0.000000  0.000000
 Grid=SuperFine IRanWt=     -1 IRanGd=            0 ICorTp=0 IEDCtl=  2004
 NAtoms=    3 NActive=    3 NUniq=    2 SFac= 2.25D+00 NAtFMM=   60 NAOKFM=F Big=F
 Integral buffers will be    131072 words long.
 Raffenetti 1 integral format.
 Two-electron integral symmetry is turned on.
 No density basis found on file    724.
 Leave Link  301 at Wed Sep  3 17:02:59 2025, MaxMem= 12348030976 cpu:               1.8 elap:               1.1
 (Enter /home/hhratchian/gaussian/gdv-20250101-j30+/gdv/l302.exe)
 NPDir=0 NMtPBC=     1 NCelOv=     1 NCel=       1 NClECP=     1 NCelD=      1
         NCelK=      1 NCelE2=     1 NClLst=     1 CellRange=     0.0.
 One-electron integrals computed using PRISM.
 One-electron integral symmetry used in STVInt
 NBasis=    29 RedAO= T EigKep=  1.69D-02  NBF=    14     2     5     8
 NBsUse=    29 1.00D-06 EigRej= -1.00D+00 NBFU=    14     2     5     8
 Leave Link  302 at Wed Sep  3 17:03:01 2025, MaxMem= 12348030976 cpu:              17.1 elap:               2.0
 (Enter /home/hhratchian/gaussian/gdv-20250101-j30+/gdv/l303.exe)
 DipDrv:  MaxL=1.
 Leave Link  303 at Wed Sep  3 17:03:02 2025, MaxMem= 12348030976 cpu:               1.5 elap:               0.6
 (Enter /home/hhratchian/gaussian/gdv-20250101-j30+/gdv/l401.exe)
 Initial guess from the checkpoint file:  "H2O_HF_6-31+Gdp_q0_m1.chk"
 B after Tr=    -0.000000    0.000000   -0.000000
         Rot=    1.000000    0.000000    0.000000   -0.000000 Ang=   0.00 deg.
 AO Guess basis will be translated and rotated to current coordinates.
 JPrj=2 DoOrth=T DoCkMO=T.
 Initial guess orbital symmetries:
       Occupied  (A1) (A1) (B2) (A1) (B1)
       Virtual   (A1) (B2) (A1) (B1) (B2) (A1) (B2) (A1) (B2) (A1)
                 (B1) (A1) (A2) (A1) (B1) (B2) (A1) (B1) (B2) (A2)
                 (A1) (A1) (B2) (A1)
 The electronic state of the initial guess is 1-A1.
 Generating alternative initial guess.
 ExpMin= 8.45D-02 ExpMax= 5.48D+03 ExpMxC= 8.25D+02 IAcc=3 Grid=SuperFine AccDes= 0.00D+00
 Harris functional with IExCor= 2005 and Grid=SuperFine diagonalized for initial guess.
 HarFok:  IExCor=    2005 AccDes= 0.00D+00 Grid=SuperFine IDoV= 1 UseB2=F ITyADJ=14 ICtDFT=  3500011
 FoFCou: FMM=F IPFlag=           0 FMFlag=      100000 FMFlg1=           0
         NFxFlg=           0 DoJE=T BraDBF=F KetDBF=T FulRan=T
         wScrn=  0.000000 ICntrl=       500 IOpCl=  0 I1Cent=   200000004 NGrid=           0
         NMat0=    1 NMatS0=      1 NMatT0=    0 NMatD0=    1 NMtDS0=    0 NMtDT0=    0
 Petite list used in FoFCou.
 Harris En= -76.1183410362721    
 Leave Link  401 at Wed Sep  3 17:03:06 2025, MaxMem= 12348030976 cpu:              39.6 elap:               4.1
 (Enter /home/hhratchian/gaussian/gdv-20250101-j30+/gdv/local/l502.exe)
 Keep R1 ints in memory in symmetry-blocked form, NReq=2569172.
 FoFCou: FMM=F IPFlag=           0 FMFlag=           0 FMFlg1=           0
         NFxFlg=           0 DoJE=F BraDBF=F KetDBF=F FulRan=T
         wScrn=  0.000000 ICntrl=       600 IOpCl=  0 I1Cent=           0 NGrid=           0
         NMat0=    1 NMatS0=    435 NMatT0=    0 NMatD0=    1 NMtDS0=    0 NMtDT0=    0
 Petite list used in FoFCou.
 Closed shell SCF:
 Using DIIS extrapolation, IDIIS=    10.
 NGot= 12348030976 LenX= 12347999701 LenY= 12347998419
 Requested convergence on RMS density matrix=1.00D-08 within 128 cycles.
 Requested convergence on MAX density matrix=1.00D-06.
 Requested convergence on             energy=1.00D-06.
 Level shift goal  0.100 maximum shift  0.100.
 No special actions if energy rises.
 Dynamic level shift is on during FON iterations.
 
  Hrant - CycOpn.
 

 Cycle   1  Pass 1  IDiag  1:
 E= -76.0302086589103    
 DIIS: error= 5.81D-03 at cycle   1 NSaved=   1.
 NSaved= 1 IEnMin= 1 EnMin= -76.0302086589103     IErMin= 1 ErrMin= 5.81D-03
 ErrMax= 5.81D-03  0.00D+00 EMaxC= 1.00D+00 BMatC= 4.46D-04 BMatP= 4.46D-04
 Rises=F IDIUse=1 WtCom= 1.00D+00 WtEn= 0.00D+00
 Coeff-Com:  0.100D+01
 Coeff:      0.100D+01
 Gap=     0.652 Goal=     0.100 Shift=    0.000
 T=  511. Gap= 0.649 NK=0 IS=    6 IE=   29 IFin=    5
          NO(<0.9)=   0  NV(>0.1)=   0      5.00e < EF      0.00e >EF  Err=0.0D+00
 GapD=    0.652 DampG=2.000 DampE=1.000 DampFc=2.0000 IDamp=-1.
 RMSDP=1.05D-03 MaxDP=6.38D-03              OVMax= 1.11D-02

 Cycle   2  Pass 1  IDiag  1:
 E= -76.0310849392413     Delta-E=       -0.000876280331 Rises=F Damp=F AM=F Ri=F Fa=F
 DIIS: error= 1.94D-03 at cycle   2 NSaved=   2.
 NSaved= 2 IEnMin= 2 EnMin= -76.0310849392413     IErMin= 2 ErrMin= 1.94D-03
 ErrMax= 1.94D-03  0.00D+00 EMaxC= 1.00D+00 BMatC= 5.12D-05 BMatP= 4.46D-04
 Rises=F IDIUse=1 WtCom= 1.00D+00 WtEn= 0.00D+00
 Coeff-Com:  0.396D-01 0.960D+00
 Coeff:      0.396D-01 0.960D+00
 Gap=     0.658 Goal=     0.100 Shift=    0.000
 T=  360. Gap= 0.658 NK=0 IS=    6 IE=   29 IFin=    5
          NO(<0.9)=   0  NV(>0.1)=   0      5.00e < EF      0.00e >EF  Err=0.0D+00
 GapD=    0.658 DampG=2.000 DampE=1.000 DampFc=2.0000 IDamp=-1.
 RMSDP=2.99D-04 MaxDP=3.54D-03 DE=-8.76D-04 OVMax= 3.61D-03

 Cycle   3  Pass 1  IDiag  1:
 E= -76.0311677540463     Delta-E=       -0.000082814805 Rises=F Damp=F AM=F Ri=F Fa=F
 DIIS: error= 8.03D-04 at cycle   3 NSaved=   3.
 NSaved= 3 IEnMin= 3 EnMin= -76.0311677540463     IErMin= 3 ErrMin= 8.03D-04
 ErrMax= 8.03D-04  0.00D+00 EMaxC= 1.00D+00 BMatC= 1.03D-05 BMatP= 5.12D-05
 Rises=F IDIUse=1 WtCom= 1.00D+00 WtEn= 0.00D+00
 Coeff-Com: -0.882D-01 0.270D+00 0.818D+00
 Coeff:     -0.882D-01 0.270D+00 0.818D+00
 Gap=     0.656 Goal=     0.100 Shift=    0.000
 RMSDP=1.33D-04 MaxDP=1.28D-03 DE=-8.28D-05 OVMax= 1.95D-03

 Cycle   4  Pass 1  IDiag  1:
 E= -76.0311885769652     Delta-E=       -0.000020822919 Rises=F Damp=F AM=F Ri=F Fa=F
 DIIS: error= 1.87D-04 at cycle   4 NSaved=   4.
 NSaved= 4 IEnMin= 4 EnMin= -76.0311885769652     IErMin= 4 ErrMin= 1.87D-04
 ErrMax= 1.87D-04  0.00D+00 EMaxC= 1.00D+00 BMatC= 2.73D-07 BMatP= 1.03D-05
 Rises=F IDIUse=1 WtCom= 1.00D+00 WtEn= 0.00D+00
 Coeff-Com:  0.176D-01-0.108D+00-0.176D+00 0.127D+01
 Coeff:      0.176D-01-0.108D+00-0.176D+00 0.127D+01
 Gap=     0.656 Goal=     0.100 Shift=    0.000
 RMSDP=5.31D-05 MaxDP=3.73D-04 DE=-2.08D-05 OVMax= 8.24D-04

 Cycle   5  Pass 1  IDiag  1:
 E= -76.0311900966394     Delta-E=       -0.000001519674 Rises=F Damp=F AM=F Ri=F Fa=F
 DIIS: error= 4.42D-05 at cycle   5 NSaved=   5.
 NSaved= 5 IEnMin= 5 EnMin= -76.0311900966394     IErMin= 5 ErrMin= 4.42D-05
 ErrMax= 4.42D-05  0.00D+00 EMaxC= 1.00D+00 BMatC= 1.27D-08 BMatP= 2.73D-07
 Rises=F IDIUse=1 WtCom= 1.00D+00 WtEn= 0.00D+00
 Coeff-Com:  0.144D-02 0.239D-02-0.151D-01-0.208D+00 0.122D+01
 Coeff:      0.144D-02 0.239D-02-0.151D-01-0.208D+00 0.122D+01
 Gap=     0.656 Goal=     0.100 Shift=    0.000
 RMSDP=1.30D-05 MaxDP=9.93D-05 DE=-1.52D-06 OVMax= 2.12D-04

 Cycle   6  Pass 1  IDiag  1:
 E= -76.0311901798636     Delta-E=       -0.000000083224 Rises=F Damp=F AM=F Ri=F Fa=F
 DIIS: error= 9.07D-06 at cycle   6 NSaved=   6.
 NSaved= 6 IEnMin= 6 EnMin= -76.0311901798636     IErMin= 6 ErrMin= 9.07D-06
 ErrMax= 9.07D-06  0.00D+00 EMaxC= 1.00D+00 BMatC= 6.00D-10 BMatP= 1.27D-08
 Rises=F IDIUse=1 WtCom= 1.00D+00 WtEn= 0.00D+00
 Coeff-Com: -0.131D-02 0.497D-02 0.129D-01-0.388D-02-0.341D+00 0.133D+01
 Coeff:     -0.131D-02 0.497D-02 0.129D-01-0.388D-02-0.341D+00 0.133D+01
 Gap=     0.656 Goal=     0.100 Shift=    0.000
 RMSDP=2.41D-06 MaxDP=2.62D-05 DE=-8.32D-08 OVMax= 3.97D-05

 Cycle   7  Pass 1  IDiag  1:
 E= -76.0311901833619     Delta-E=       -0.000000003498 Rises=F Damp=F AM=F Ri=F Fa=F
 DIIS: error= 1.50D-06 at cycle   7 NSaved=   7.
 NSaved= 7 IEnMin= 7 EnMin= -76.0311901833619     IErMin= 7 ErrMin= 1.50D-06
 ErrMax= 1.50D-06  0.00D+00 EMaxC= 1.00D+00 BMatC= 1.64D-11 BMatP= 6.00D-10
 Rises=F IDIUse=1 WtCom= 1.00D+00 WtEn= 0.00D+00
 Coeff-Com:  0.433D-03-0.175D-02-0.434D-02 0.488D-02 0.104D+00-0.514D+00
 Coeff-Com:  0.141D+01
 Coeff:      0.433D-03-0.175D-02-0.434D-02 0.488D-02 0.104D+00-0.514D+00
 Coeff:      0.141D+01
 Gap=     0.656 Goal=     0.100 Shift=    0.000
 RMSDP=3.58D-07 MaxDP=4.34D-06 DE=-3.50D-09 OVMax= 6.68D-06

 Cycle   8  Pass 1  IDiag  1:
 E= -76.0311901834508     Delta-E=       -0.000000000089 Rises=F Damp=F AM=F Ri=F Fa=F
 DIIS: error= 1.44D-07 at cycle   8 NSaved=   8.
 NSaved= 8 IEnMin= 8 EnMin= -76.0311901834508     IErMin= 8 ErrMin= 1.44D-07
 ErrMax= 1.44D-07  0.00D+00 EMaxC= 1.00D+00 BMatC= 1.99D-13 BMatP= 1.64D-11
 Rises=F IDIUse=1 WtCom= 1.00D+00 WtEn= 0.00D+00
 Coeff-Com: -0.793D-04 0.322D-03 0.836D-03-0.110D-02-0.188D-01 0.102D+00
 Coeff-Com: -0.355D+00 0.127D+01
 Coeff:     -0.793D-04 0.322D-03 0.836D-03-0.110D-02-0.188D-01 0.102D+00
 Coeff:     -0.355D+00 0.127D+01
 Gap=     0.656 Goal=     0.100 Shift=    0.000
 RMSDP=5.81D-08 MaxDP=5.56D-07 DE=-8.88D-11 OVMax= 5.94D-07

 Cycle   9  Pass 1  IDiag  1:
 E= -76.0311901834515     Delta-E=       -0.000000000001 Rises=F Damp=F AM=F Ri=F Fa=F
 DIIS: error= 1.08D-08 at cycle   9 NSaved=   9.
 NSaved= 9 IEnMin= 9 EnMin= -76.0311901834515     IErMin= 9 ErrMin= 1.08D-08
 ErrMax= 1.08D-08  0.00D+00 EMaxC= 1.00D+00 BMatC= 1.80D-15 BMatP= 1.99D-13
 Rises=F IDIUse=1 WtCom= 1.00D+00 WtEn= 0.00D+00
 Coeff-Com:  0.112D-04-0.461D-04-0.119D-03 0.158D-03 0.268D-02-0.149D-01
 Coeff-Com:  0.560D-01-0.255D+00 0.121D+01
 Coeff:      0.112D-04-0.461D-04-0.119D-03 0.158D-03 0.268D-02-0.149D-01
 Coeff:      0.560D-01-0.255D+00 0.121D+01
 Gap=     0.656 Goal=     0.100 Shift=    0.000
 RMSDP=6.67D-09 MaxDP=4.22D-08 DE=-7.67D-13 OVMax= 3.91D-08

 SCF Done:  E(RHF) =  -76.0311901835     A.U. after    9 cycles
            NFock=  9  Conv=0.67D-08     -V/T= 2.0031
 KE=          75.799250 PE=        -199.001357 EE=          37.836847
 Leave Link  502 at Wed Sep  3 17:03:09 2025, MaxMem= 12348030976 cpu:              22.9 elap:               3.0
 (Enter /home/hhratchian/gaussian/gdv-20250101-j30+/gdv/l701.exe)
 ... and contract with generalized density number  0.
 Compute integral first derivatives.
 Leave Link  701 at Wed Sep  3 17:03:12 2025, MaxMem= 12348030976 cpu:              21.3 elap:               2.1
 (Enter /home/hhratchian/gaussian/gdv-20250101-j30+/gdv/l702.exe)
 L702 exits ... SP integral derivatives will be done elsewhere.
 Leave Link  702 at Wed Sep  3 17:03:13 2025, MaxMem= 12348030976 cpu:               1.1 elap:               0.7
 (Enter /home/hhratchian/gaussian/gdv-20250101-j30+/gdv/l703.exe)
 Integral derivatives from FoFJK, PRISM(SPDF).
 Compute integral first derivatives, UseDBF=F ICtDFT=           0.
 Calling FoFJK, ICntrl=      2127 FMM=F ISym2X=1 I1Cent= 0 IOpClX= 0 NMat=1 NMatS=1 NMatT=0.
 FoFJK:  IHMeth= 1 ICntrl=    2127 DoSepK=F KAlg= 0 I1Cent=           0 FoldK=F
 IRaf=         0 NMat=       1 IRICut=       1 DoRegI=T DoRafI=F ISym2E= 1 IDoP0=0 IntGTp=1.
 FoFCou: FMM=F IPFlag=           0 FMFlag=      100000 FMFlg1=         800
         NFxFlg=           0 DoJE=F BraDBF=F KetDBF=F FulRan=T
         wScrn=  0.000000 ICntrl=      2127 IOpCl=  0 I1Cent=           0 NGrid=           0
         NMat0=    1 NMatS0=      1 NMatT0=    0 NMatD0=    1 NMtDS0=    0 NMtDT0=    0
 Petite list used in FoFCou.
 Leave Link  703 at Wed Sep  3 17:03:16 2025, MaxMem= 12348030976 cpu:              34.0 elap:               3.9
 (Enter /home/hhratchian/gaussian/gdv-20250101-j30+/gdv/l716.exe)
 Dipole        =-5.74019990D-17 1.11022302D-15-8.69431363D-01
 ***** Axes restored to original set *****
 -------------------------------------------------------------------
 Center     Atomic                   Forces (Hartrees/Bohr)
 Number     Number              X              Y              Z
 -------------------------------------------------------------------
      1        8           0.000000000   -0.000000000   -0.003977168
      2        1          -0.000672895    0.000000000    0.001988584
      3        1           0.000672895    0.000000000    0.001988584
 -------------------------------------------------------------------
 Cartesian Forces:  Max     0.003977168 RMS     0.001654367
 Leave Link  716 at Wed Sep  3 17:03:17 2025, MaxMem= 12348030976 cpu:               1.1 elap:               0.7
 (Enter /home/hhratchian/gaussian/gdv-20250101-j30+/gdv/l103.exe)

 GradGradGradGradGradGradGradGradGradGradGradGradGradGradGradGradGradGrad
 Berny optimization.
 Using GEDIIS/GDIIS optimizer.
 FormGI is forming the generalized inverse of G from B-inverse, IUseBI=4.
 NTrRot=    -1 NTRed=     3 NAtoms=     3 NSkip=     0 NRank=     3 IsLin=F EigSml=8.1078D-01
 Internal  Forces:  Max     0.003571695 RMS     0.002122950
 Search for a local minimum.
 Step number   2 out of a maximum of   20
 All quantities printed in internal units (Hartrees-Bohrs-Radians)
 RMS Force = .21229D-02 SwitMx=.10000D-02 MixMth= 1
 Mixed Optimization -- RFO/linear search
 Update second derivatives using D2CorX and points    1    2
 DE= -2.94D-03 DEPred=-2.88D-03 R= 1.02D+00
 TightC=F SS=  1.41D+00  RLast= 1.13D-01 DXNew= 5.0454D-01 3.3958D-01
 Trust test= 1.02D+00 RLast= 1.13D-01 DXMaxT set to 3.40D-01
 The second derivative matrix:
                          R1        R2        A1
           R1           0.68546
           R2           0.01021   0.68546
           A1           0.01934   0.01934   0.14880
 ITU=  1  0
 Use linear search instead of GDIIS.
     Eigenvalues ---    0.14743   0.67525   0.69704
 RFO step:  Lambda=-7.37015483D-05 EMin= 1.47432673D-01
 Quartic linear search produced a step of  0.07177.
 GrdOpt: GIC=T ITstSp=  0 NP=   2 DidLin=T DidDIS=F IDoGRo=0 IDoRot=0
         ISwap=1 XLin= 0.072 DXMaxT= 0.340
 Iteration  1 RMS(Cart)=  0.00781731 RMS(Int)=  0.00012321
 Iteration  2 RMS(Cart)=  0.00006642 RMS(Int)=  0.00000000
 Iteration  3 RMS(Cart)=  0.00000000 RMS(Int)=  0.00000000
 ClnCor:  largest displacement from symmetrization is 3.20D-15 for atom     3.
 Variable       Old X    -DE/DX   Delta X   Delta X   Delta X     New X
                                 (Linear)    (Quad)   (Total)
    R1        1.78021   0.00062   0.00422  -0.00237   0.00185   1.78206
    R2        1.78021   0.00062   0.00422  -0.00237   0.00185   1.78206
    A1        1.89146  -0.00357  -0.00551  -0.02043  -0.02594   1.86552
         Item               Value     Threshold  Converged?
 Maximum Force            0.003572     0.000450     NO 
 RMS     Force            0.002123     0.000300     NO 
 Maximum Displacement     0.013158     0.001800     NO 
 RMS     Displacement     0.013598     0.001200     NO 
 Predicted change in Energy=-4.435024D-05
 Lowest energy point so far.  Saving SCF results.
 GradGradGradGradGradGradGradGradGradGradGradGradGradGradGradGradGradGrad

 Leave Link  103 at Wed Sep  3 17:03:18 2025, MaxMem= 12348030976 cpu:               2.1 elap:               0.7
 (Enter /home/hhratchian/gaussian/gdv-20250101-j30+/gdv/l202.exe)
                          Input orientation:                          
 ---------------------------------------------------------------------
 Center     Atomic      Atomic             Coordinates (Angstroms)
 Number     Number       Type             X           Y           Z
 ---------------------------------------------------------------------
      1          8           0       -0.000000    0.000000   -0.038266
      2          1           0        0.757500    0.000000    0.523417
      3          1           0       -0.757500   -0.000000    0.523417
 ---------------------------------------------------------------------
                    Distance matrix (angstroms):
                    1          2          3
     1  O    0.000000
     2  H    0.943024   0.000000
     3  H    0.943024   1.515000   0.000000
 Stoichiometry    H2O
 Framework group  C2V[C2(O),SGV(H2)]
 Deg. of freedom     2
 Full point group                 C2V     NOp   4
 RotChk:  IX=0 Diff= 1.73D-15
 Largest Abelian subgroup         C2V     NOp   4
 Largest concise Abelian subgroup C2      NOp   2
                         Standard orientation:                         
 ---------------------------------------------------------------------
 Center     Atomic      Atomic             Coordinates (Angstroms)
 Number     Number       Type             X           Y           Z
 ---------------------------------------------------------------------
      1          8           0        0.000000   -0.000000    0.112337
      2          1           0       -0.000000    0.757500   -0.449346
      3          1           0       -0.000000   -0.757500   -0.449346
 ---------------------------------------------------------------------
 Rotational constants (GHZ):         894.8803950         436.9549177         293.5966524
 Leave Link  202 at Wed Sep  3 17:03:19 2025, MaxMem= 12348030976 cpu:               2.3 elap:               0.5
 (Enter /home/hhratchian/gaussian/gdv-20250101-j30+/gdv/local/l301.exe)
 Basis read from rwf:  (6D, 7F)
 No pseudopotential information found on rwf file.
 There are    14 symmetry adapted cartesian basis functions of A1  symmetry.
 There are     2 symmetry adapted cartesian basis functions of A2  symmetry.
 There are     5 symmetry adapted cartesian basis functions of B1  symmetry.
 There are     8 symmetry adapted cartesian basis functions of B2  symmetry.
 There are    14 symmetry adapted basis functions of A1  symmetry.
 There are     2 symmetry adapted basis functions of A2  symmetry.
 There are     5 symmetry adapted basis functions of B1  symmetry.
 There are     8 symmetry adapted basis functions of B2  symmetry.
    29 basis functions,    46 primitive gaussians,    29 cartesian basis functions
     5 alpha electrons        5 beta electrons
       nuclear repulsion energy         9.3276802482 Hartrees.
 IExCor=         0 DFT=F Ex=HF Corr=None N6=None ScaHFX=  1.000000
 ScaDFX=  1.000000  1.000000  1.000000  1.000000  1.000000  0.000000
 ScaDFX=  0.000000  0.000000  0.000000  0.000000  0.000000  0.000000
 Grid=SuperFine IRanWt=     -1 IRanGd=            0 ICorTp=0 IEDCtl=  2004
 NAtoms=    3 NActive=    3 NUniq=    2 SFac= 2.25D+00 NAtFMM=   60 NAOKFM=F Big=F
 Integral buffers will be    131072 words long.
 Raffenetti 1 integral format.
 Two-electron integral symmetry is turned on.
 No density basis found on file    724.
 Leave Link  301 at Wed Sep  3 17:03:20 2025, MaxMem= 12348030976 cpu:               1.8 elap:               1.2
 (Enter /home/hhratchian/gaussian/gdv-20250101-j30+/gdv/l302.exe)
 NPDir=0 NMtPBC=     1 NCelOv=     1 NCel=       1 NClECP=     1 NCelD=      1
         NCelK=      1 NCelE2=     1 NClLst=     1 CellRange=     0.0.
 One-electron integrals computed using PRISM.
 One-electron integral symmetry used in STVInt
 NBasis=    29 RedAO= T EigKep=  1.67D-02  NBF=    14     2     5     8
 NBsUse=    29 1.00D-06 EigRej= -1.00D+00 NBFU=    14     2     5     8
 Leave Link  302 at Wed Sep  3 17:03:22 2025, MaxMem= 12348030976 cpu:              16.5 elap:               2.0
 (Enter /home/hhratchian/gaussian/gdv-20250101-j30+/gdv/l303.exe)
 DipDrv:  MaxL=1.
 Leave Link  303 at Wed Sep  3 17:03:23 2025, MaxMem= 12348030976 cpu:               1.4 elap:               0.7
 (Enter /home/hhratchian/gaussian/gdv-20250101-j30+/gdv/l401.exe)
 Initial guess from the checkpoint file:  "H2O_HF_6-31+Gdp_q0_m1.chk"
 B after Tr=     0.000000   -0.000000    0.000000
         Rot=    1.000000   -0.000000    0.000000    0.000000 Ang=   0.00 deg.
 AO Guess basis will be translated and rotated to current coordinates.
 JPrj=2 DoOrth=T DoCkMO=T.
 Initial guess orbital symmetries:
       Occupied  (A1) (A1) (B2) (A1) (B1)
       Virtual   (A1) (B2) (A1) (B1) (B2) (A1) (B2) (A1) (B2) (A1)
                 (B1) (A1) (A2) (A1) (B1) (B2) (A1) (B2) (B1) (A2)
                 (A1) (A1) (B2) (A1)
 The electronic state of the initial guess is 1-A1.
 Leave Link  401 at Wed Sep  3 17:03:25 2025, MaxMem= 12348030976 cpu:               3.8 elap:               1.3
 (Enter /home/hhratchian/gaussian/gdv-20250101-j30+/gdv/local/l502.exe)
 Keep R1 ints in memory in symmetry-blocked form, NReq=2569172.
 FoFCou: FMM=F IPFlag=           0 FMFlag=           0 FMFlg1=           0
         NFxFlg=           0 DoJE=F BraDBF=F KetDBF=F FulRan=T
         wScrn=  0.000000 ICntrl=       600 IOpCl=  0 I1Cent=           0 NGrid=           0
         NMat0=    1 NMatS0=    435 NMatT0=    0 NMatD0=    1 NMtDS0=    0 NMtDT0=    0
 Petite list used in FoFCou.
 Closed shell SCF:
 Using DIIS extrapolation, IDIIS=    10.
 NGot= 12348030976 LenX= 12347999701 LenY= 12347998419
 Requested convergence on RMS density matrix=1.00D-08 within 128 cycles.
 Requested convergence on MAX density matrix=1.00D-06.
 Requested convergence on             energy=1.00D-06.
 Level shift goal  0.100 maximum shift  0.100.
 No special actions if energy rises.
 Dynamic level shift is on during FON iterations.
 
  Hrant - CycOpn.
 

 Cycle   1  Pass 1  IDiag  1:
 E= -76.0312023086378    
 DIIS: error= 9.64D-04 at cycle   1 NSaved=   1.
 NSaved= 1 IEnMin= 1 EnMin= -76.0312023086378     IErMin= 1 ErrMin= 9.64D-04
 ErrMax= 9.64D-04  0.00D+00 EMaxC= 1.00D+00 BMatC= 1.21D-05 BMatP= 1.21D-05
 Rises=F IDIUse=1 WtCom= 1.00D+00 WtEn= 0.00D+00
 Coeff-Com:  0.100D+01
 Coeff:      0.100D+01
 Gap=     0.655 Goal=     0.100 Shift=    0.000
 RMSDP=1.91D-04 MaxDP=1.19D-03              OVMax= 1.85D-03

 Cycle   2  Pass 1  IDiag  1:
 E= -76.0312272570184     Delta-E=       -0.000024948381 Rises=F Damp=F AM=F Ri=F Fa=F
 DIIS: error= 2.63D-04 at cycle   2 NSaved=   2.
 NSaved= 2 IEnMin= 2 EnMin= -76.0312272570184     IErMin= 2 ErrMin= 2.63D-04
 ErrMax= 2.63D-04  0.00D+00 EMaxC= 1.00D+00 BMatC= 5.69D-07 BMatP= 1.21D-05
 Rises=F IDIUse=1 WtCom= 1.00D+00 WtEn= 0.00D+00
 Coeff-Com: -0.185D+00 0.118D+01
 Coeff:     -0.185D+00 0.118D+01
 Gap=     0.656 Goal=     0.100 Shift=    0.000
 RMSDP=6.62D-05 MaxDP=3.78D-04 DE=-2.49D-05 OVMax= 7.12D-04

 Cycle   3  Pass 1  IDiag  1:
 E= -76.0312289748413     Delta-E=       -0.000001717823 Rises=F Damp=F AM=F Ri=F Fa=F
 DIIS: error= 6.28D-05 at cycle   3 NSaved=   3.
 NSaved= 3 IEnMin= 3 EnMin= -76.0312289748413     IErMin= 3 ErrMin= 6.28D-05
 ErrMax= 6.28D-05  0.00D+00 EMaxC= 1.00D+00 BMatC= 6.03D-08 BMatP= 5.69D-07
 Rises=F IDIUse=1 WtCom= 1.00D+00 WtEn= 0.00D+00
 Coeff-Com: -0.617D-01 0.276D+00 0.786D+00
 Coeff:     -0.617D-01 0.276D+00 0.786D+00
 Gap=     0.656 Goal=     0.100 Shift=    0.000
 RMSDP=1.43D-05 MaxDP=1.01D-04 DE=-1.72D-06 OVMax= 1.56D-04

 Cycle   4  Pass 1  IDiag  1:
 E= -76.0312291033164     Delta-E=       -0.000000128475 Rises=F Damp=F AM=F Ri=F Fa=F
 DIIS: error= 2.85D-05 at cycle   4 NSaved=   4.
 NSaved= 4 IEnMin= 4 EnMin= -76.0312291033164     IErMin= 4 ErrMin= 2.85D-05
 ErrMax= 2.85D-05  0.00D+00 EMaxC= 1.00D+00 BMatC= 6.46D-09 BMatP= 6.03D-08
 Rises=F IDIUse=1 WtCom= 1.00D+00 WtEn= 0.00D+00
 Coeff-Com:  0.271D-01-0.182D+00 0.237D-01 0.113D+01
 Coeff:      0.271D-01-0.182D+00 0.237D-01 0.113D+01
 Gap=     0.656 Goal=     0.100 Shift=    0.000
 RMSDP=8.83D-06 MaxDP=6.34D-05 DE=-1.28D-07 OVMax= 9.56D-05

 Cycle   5  Pass 1  IDiag  1:
 E= -76.0312291261604     Delta-E=       -0.000000022844 Rises=F Damp=F AM=F Ri=F Fa=F
 DIIS: error= 4.22D-06 at cycle   5 NSaved=   5.
 NSaved= 5 IEnMin= 5 EnMin= -76.0312291261604     IErMin= 5 ErrMin= 4.22D-06
 ErrMax= 4.22D-06  0.00D+00 EMaxC= 1.00D+00 BMatC= 1.25D-10 BMatP= 6.46D-09
 Rises=F IDIUse=1 WtCom= 1.00D+00 WtEn= 0.00D+00
 Coeff-Com: -0.801D-02 0.571D-01-0.266D-01-0.405D+00 0.138D+01
 Coeff:     -0.801D-02 0.571D-01-0.266D-01-0.405D+00 0.138D+01
 Gap=     0.656 Goal=     0.100 Shift=    0.000
 RMSDP=1.24D-06 MaxDP=9.45D-06 DE=-2.28D-08 OVMax= 2.03D-05

 Cycle   6  Pass 1  IDiag  1:
 E= -76.0312291269691     Delta-E=       -0.000000000809 Rises=F Damp=F AM=F Ri=F Fa=F
 DIIS: error= 8.34D-07 at cycle   6 NSaved=   6.
 NSaved= 6 IEnMin= 6 EnMin= -76.0312291269691     IErMin= 6 ErrMin= 8.34D-07
 ErrMax= 8.34D-07  0.00D+00 EMaxC= 1.00D+00 BMatC= 4.46D-12 BMatP= 1.25D-10
 Rises=F IDIUse=1 WtCom= 1.00D+00 WtEn= 0.00D+00
 Coeff-Com: -0.111D-04-0.538D-03 0.232D-02 0.102D-01-0.205D+00 0.119D+01
 Coeff:     -0.111D-04-0.538D-03 0.232D-02 0.102D-01-0.205D+00 0.119D+01
 Gap=     0.656 Goal=     0.100 Shift=    0.000
 RMSDP=2.40D-07 MaxDP=2.15D-06 DE=-8.09D-10 OVMax= 3.63D-06

 Cycle   7  Pass 1  IDiag  1:
 E= -76.0312291269973     Delta-E=       -0.000000000028 Rises=F Damp=F AM=F Ri=F Fa=F
 DIIS: error= 1.71D-07 at cycle   7 NSaved=   7.
 NSaved= 7 IEnMin= 7 EnMin= -76.0312291269973     IErMin= 7 ErrMin= 1.71D-07
 ErrMax= 1.71D-07  0.00D+00 EMaxC= 1.00D+00 BMatC= 2.44D-13 BMatP= 4.46D-12
 Rises=F IDIUse=1 WtCom= 1.00D+00 WtEn= 0.00D+00
 Coeff-Com:  0.432D-03-0.286D-02 0.612D-03 0.191D-01-0.126D-01-0.348D+00
 Coeff-Com:  0.134D+01
 Coeff:      0.432D-03-0.286D-02 0.612D-03 0.191D-01-0.126D-01-0.348D+00
 Coeff:      0.134D+01
 Gap=     0.656 Goal=     0.100 Shift=    0.000
 RMSDP=5.37D-08 MaxDP=5.34D-07 DE=-2.83D-11 OVMax= 8.00D-07

 Cycle   8  Pass 1  IDiag  1:
 E= -76.0312291269987     Delta-E=       -0.000000000001 Rises=F Damp=F AM=F Ri=F Fa=F
 DIIS: error= 2.41D-08 at cycle   8 NSaved=   8.
 NSaved= 8 IEnMin= 8 EnMin= -76.0312291269987     IErMin= 8 ErrMin= 2.41D-08
 ErrMax= 2.41D-08  0.00D+00 EMaxC= 1.00D+00 BMatC= 3.89D-15 BMatP= 2.44D-13
 Rises=F IDIUse=1 WtCom= 1.00D+00 WtEn= 0.00D+00
 Coeff-Com: -0.113D-03 0.760D-03-0.223D-03-0.524D-02 0.835D-02 0.652D-01
 Coeff-Com: -0.357D+00 0.129D+01
 Coeff:     -0.113D-03 0.760D-03-0.223D-03-0.524D-02 0.835D-02 0.652D-01
 Coeff:     -0.357D+00 0.129D+01
 Gap=     0.656 Goal=     0.100 Shift=    0.000
 RMSDP=1.16D-08 MaxDP=1.18D-07 DE=-1.39D-12 OVMax= 9.08D-08

 Cycle   9  Pass 1  IDiag  1:
 E= -76.0312291269988     Delta-E=       -0.000000000000 Rises=F Damp=F AM=F Ri=F Fa=F
 DIIS: error= 2.42D-09 at cycle   9 NSaved=   9.
 NSaved= 9 IEnMin= 9 EnMin= -76.0312291269988     IErMin= 9 ErrMin= 2.42D-09
 ErrMax= 2.42D-09  0.00D+00 EMaxC= 1.00D+00 BMatC= 5.62D-17 BMatP= 3.89D-15
 Rises=F IDIUse=1 WtCom= 1.00D+00 WtEn= 0.00D+00
 Coeff-Com:  0.182D-04-0.123D-03 0.439D-04 0.844D-03-0.161D-02-0.881D-02
 Coeff-Com:  0.574D-01-0.288D+00 0.124D+01
 Coeff:      0.182D-04-0.123D-03 0.439D-04 0.844D-03-0.161D-02-0.881D-02
 Coeff:      0.574D-01-0.288D+00 0.124D+01
 Gap=     0.656 Goal=     0.100 Shift=    0.000
 RMSDP=1.69D-09 MaxDP=1.62D-08 DE=-5.68D-14 OVMax= 9.36D-09

 SCF Done:  E(RHF) =  -76.0312291270     A.U. after    9 cycles
            NFock=  9  Conv=0.17D-08     -V/T= 2.0031
 KE=          75.798153 PE=        -198.985437 EE=          37.828374
 Leave Link  502 at Wed Sep  3 17:03:28 2025, MaxMem= 12348030976 cpu:              22.0 elap:               2.9
 (Enter /home/hhratchian/gaussian/gdv-20250101-j30+/gdv/l701.exe)
 ... and contract with generalized density number  0.
 Compute integral first derivatives.
 Leave Link  701 at Wed Sep  3 17:03:30 2025, MaxMem= 12348030976 cpu:              19.9 elap:               2.0
 (Enter /home/hhratchian/gaussian/gdv-20250101-j30+/gdv/l702.exe)
 L702 exits ... SP integral derivatives will be done elsewhere.
 Leave Link  702 at Wed Sep  3 17:03:31 2025, MaxMem= 12348030976 cpu:               1.1 elap:               0.6
 (Enter /home/hhratchian/gaussian/gdv-20250101-j30+/gdv/l703.exe)
 Integral derivatives from FoFJK, PRISM(SPDF).
 Compute integral first derivatives, UseDBF=F ICtDFT=           0.
 Calling FoFJK, ICntrl=      2127 FMM=F ISym2X=1 I1Cent= 0 IOpClX= 0 NMat=1 NMatS=1 NMatT=0.
 FoFJK:  IHMeth= 1 ICntrl=    2127 DoSepK=F KAlg= 0 I1Cent=           0 FoldK=F
 IRaf=         0 NMat=       1 IRICut=       1 DoRegI=T DoRafI=F ISym2E= 1 IDoP0=0 IntGTp=1.
 FoFCou: FMM=F IPFlag=           0 FMFlag=      100000 FMFlg1=         800
         NFxFlg=           0 DoJE=F BraDBF=F KetDBF=F FulRan=T
         wScrn=  0.000000 ICntrl=      2127 IOpCl=  0 I1Cent=           0 NGrid=           0
         NMat0=    1 NMatS0=      1 NMatT0=    0 NMatD0=    1 NMtDS0=    0 NMtDT0=    0
 Petite list used in FoFCou.
 Leave Link  703 at Wed Sep  3 17:03:34 2025, MaxMem= 12348030976 cpu:              32.2 elap:               3.7
 (Enter /home/hhratchian/gaussian/gdv-20250101-j30+/gdv/l716.exe)
 Dipole        =-5.67480588D-17 0.00000000D+00-8.80543475D-01
 ***** Axes restored to original set *****
 -------------------------------------------------------------------
 Center     Atomic                   Forces (Hartrees/Bohr)
 Number     Number              X              Y              Z
 -------------------------------------------------------------------
      1        8          -0.000000000   -0.000000000    0.000430019
      2        1           0.000368048    0.000000000   -0.000215009
      3        1          -0.000368048    0.000000000   -0.000215009
 -------------------------------------------------------------------
 Cartesian Forces:  Max     0.000430019 RMS     0.000246823
 Leave Link  716 at Wed Sep  3 17:03:35 2025, MaxMem= 12348030976 cpu:               1.1 elap:               0.6
 (Enter /home/hhratchian/gaussian/gdv-20250101-j30+/gdv/l103.exe)

 GradGradGradGradGradGradGradGradGradGradGradGradGradGradGradGradGradGrad
 Berny optimization.
 Using GEDIIS/GDIIS optimizer.
 FormGI is forming the generalized inverse of G from B-inverse, IUseBI=4.
 NTrRot=    -1 NTRed=     3 NAtoms=     3 NSkip=     0 NRank=     3 IsLin=F EigSml=8.0499D-01
 Internal  Forces:  Max     0.000698436 RMS     0.000425823
 Search for a local minimum.
 Step number   3 out of a maximum of   20
 All quantities printed in internal units (Hartrees-Bohrs-Radians)
 RMS Force = .42582D-03 SwitMx=.10000D-02 MixMth= 2
 Mixed Optimization -- En-DIIS/RFO-DIIS
 Update second derivatives using D2CorX and points    1    2    3
 DE= -3.89D-05 DEPred=-4.44D-05 R= 8.78D-01
 TightC=F SS=  1.41D+00  RLast= 2.61D-02 DXNew= 5.7111D-01 7.8212D-02
 Trust test= 8.78D-01 RLast= 2.61D-02 DXMaxT set to 3.40D-01
 The second derivative matrix:
                          R1        R2        A1
           R1           0.67594
           R2           0.00069   0.67594
           A1           0.03088   0.03088   0.16903
 ITU=  1  1  0
 Use linear search instead of GDIIS.
     Eigenvalues ---    0.16530   0.67525   0.68036
 RFO step:  Lambda=-1.67537308D-07 EMin= 1.65295839D-01
 Quartic linear search produced a step of -0.15405.
 GrdOpt: GIC=T ITstSp=  0 NP=   3 DidLin=T DidDIS=F IDoGRo=0 IDoRot=0
         ISwap=1 XLin=-0.154 DXMaxT= 0.340
 Iteration  1 RMS(Cart)=  0.00130294 RMS(Int)=  0.00000301
 Iteration  2 RMS(Cart)=  0.00000150 RMS(Int)=  0.00000000
 Iteration  3 RMS(Cart)=  0.00000000 RMS(Int)=  0.00000000
 ClnCor:  largest displacement from symmetrization is 3.14D-16 for atom     3.
 Variable       Old X    -DE/DX   Delta X   Delta X   Delta X     New X
                                 (Linear)    (Quad)   (Total)
    R1        1.78206   0.00017  -0.00028   0.00035   0.00006   1.78212
    R2        1.78206   0.00017  -0.00028   0.00035   0.00006   1.78212
    A1        1.86552   0.00070   0.00400   0.00007   0.00407   1.86959
         Item               Value     Threshold  Converged?
 Maximum Force            0.000698     0.000450     NO 
 RMS     Force            0.000426     0.000300     NO 
 Maximum Displacement     0.002207     0.001800     NO 
 RMS     Displacement     0.002256     0.001200     NO 
 Predicted change in Energy=-1.445265D-06
 Lowest energy point so far.  Saving SCF results.
 GradGradGradGradGradGradGradGradGradGradGradGradGradGradGradGradGradGrad

 Leave Link  103 at Wed Sep  3 17:03:36 2025, MaxMem= 12348030976 cpu:               2.2 elap:               0.7
 (Enter /home/hhratchian/gaussian/gdv-20250101-j30+/gdv/l202.exe)
                          Input orientation:                          
 ---------------------------------------------------------------------
 Center     Atomic      Atomic             Coordinates (Angstroms)
 Number     Number       Type             X           Y           Z
 ---------------------------------------------------------------------
      1          8           0        0.000000    0.000000   -0.037251
      2          1           0        0.758668    0.000000    0.522909
      3          1           0       -0.758668   -0.000000    0.522909
 ---------------------------------------------------------------------
                    Distance matrix (angstroms):
                    1          2          3
     1  O    0.000000
     2  H    0.943057   0.000000
     3  H    0.943057   1.517336   0.000000
 Stoichiometry    H2O
 Framework group  C2V[C2(O),SGV(H2)]
 Deg. of freedom     2
 Full point group                 C2V     NOp   4
 RotChk:  IX=0 Diff= 5.91D-16
 Largest Abelian subgroup         C2V     NOp   4
 Largest concise Abelian subgroup C2      NOp   2
                         Standard orientation:                         
 ---------------------------------------------------------------------
 Center     Atomic      Atomic             Coordinates (Angstroms)
 Number     Number       Type             X           Y           Z
 ---------------------------------------------------------------------
      1          8           0        0.000000    0.000000    0.112032
      2          1           0        0.000000    0.758668   -0.448128
      3          1           0       -0.000000   -0.758668   -0.448128
 ---------------------------------------------------------------------
 Rotational constants (GHZ):         899.7521961         435.6106291         293.5094589
 Leave Link  202 at Wed Sep  3 17:03:37 2025, MaxMem= 12348030976 cpu:               2.2 elap:               0.5
 (Enter /home/hhratchian/gaussian/gdv-20250101-j30+/gdv/local/l301.exe)
 Basis read from rwf:  (6D, 7F)
 No pseudopotential information found on rwf file.
 There are    14 symmetry adapted cartesian basis functions of A1  symmetry.
 There are     2 symmetry adapted cartesian basis functions of A2  symmetry.
 There are     5 symmetry adapted cartesian basis functions of B1  symmetry.
 There are     8 symmetry adapted cartesian basis functions of B2  symmetry.
 There are    14 symmetry adapted basis functions of A1  symmetry.
 There are     2 symmetry adapted basis functions of A2  symmetry.
 There are     5 symmetry adapted basis functions of B1  symmetry.
 There are     8 symmetry adapted basis functions of B2  symmetry.
    29 basis functions,    46 primitive gaussians,    29 cartesian basis functions
     5 alpha electrons        5 beta electrons
       nuclear repulsion energy         9.3268269602 Hartrees.
 IExCor=         0 DFT=F Ex=HF Corr=None N6=None ScaHFX=  1.000000
 ScaDFX=  1.000000  1.000000  1.000000  1.000000  1.000000  0.000000
 ScaDFX=  0.000000  0.000000  0.000000  0.000000  0.000000  0.000000
 Grid=SuperFine IRanWt=     -1 IRanGd=            0 ICorTp=0 IEDCtl=  2004
 NAtoms=    3 NActive=    3 NUniq=    2 SFac= 2.25D+00 NAtFMM=   60 NAOKFM=F Big=F
 Integral buffers will be    131072 words long.
 Raffenetti 1 integral format.
 Two-electron integral symmetry is turned on.
 No density basis found on file    724.
 Leave Link  301 at Wed Sep  3 17:03:38 2025, MaxMem= 12348030976 cpu:               1.6 elap:               1.1
 (Enter /home/hhratchian/gaussian/gdv-20250101-j30+/gdv/l302.exe)
 NPDir=0 NMtPBC=     1 NCelOv=     1 NCel=       1 NClECP=     1 NCelD=      1
         NCelK=      1 NCelE2=     1 NClLst=     1 CellRange=     0.0.
 One-electron integrals computed using PRISM.
 One-electron integral symmetry used in STVInt
 NBasis=    29 RedAO= T EigKep=  1.67D-02  NBF=    14     2     5     8
 NBsUse=    29 1.00D-06 EigRej= -1.00D+00 NBFU=    14     2     5     8
 Leave Link  302 at Wed Sep  3 17:03:40 2025, MaxMem= 12348030976 cpu:              15.7 elap:               1.9
 (Enter /home/hhratchian/gaussian/gdv-20250101-j30+/gdv/l303.exe)
 DipDrv:  MaxL=1.
 Leave Link  303 at Wed Sep  3 17:03:41 2025, MaxMem= 12348030976 cpu:               1.5 elap:               0.6
 (Enter /home/hhratchian/gaussian/gdv-20250101-j30+/gdv/l401.exe)
 Initial guess from the checkpoint file:  "H2O_HF_6-31+Gdp_q0_m1.chk"
 B after Tr=    -0.000000    0.000000   -0.000000
         Rot=    1.000000   -0.000000   -0.000000    0.000000 Ang=   0.00 deg.
 AO Guess basis will be translated and rotated to current coordinates.
 JPrj=2 DoOrth=T DoCkMO=T.
 Initial guess orbital symmetries:
       Occupied  (A1) (A1) (B2) (A1) (B1)
       Virtual   (A1) (B2) (A1) (B1) (B2) (A1) (B2) (A1) (B2) (A1)
                 (B1) (A1) (A2) (A1) (B1) (B2) (A1) (B2) (B1) (A2)
                 (A1) (A1) (B2) (A1)
 The electronic state of the initial guess is 1-A1.
 Leave Link  401 at Wed Sep  3 17:03:42 2025, MaxMem= 12348030976 cpu:               3.7 elap:               1.4
 (Enter /home/hhratchian/gaussian/gdv-20250101-j30+/gdv/local/l502.exe)
 Keep R1 ints in memory in symmetry-blocked form, NReq=2569172.
 FoFCou: FMM=F IPFlag=           0 FMFlag=           0 FMFlg1=           0
         NFxFlg=           0 DoJE=F BraDBF=F KetDBF=F FulRan=T
         wScrn=  0.000000 ICntrl=       600 IOpCl=  0 I1Cent=           0 NGrid=           0
         NMat0=    1 NMatS0=    435 NMatT0=    0 NMatD0=    1 NMtDS0=    0 NMtDT0=    0
 Petite list used in FoFCou.
 Closed shell SCF:
 Using DIIS extrapolation, IDIIS=    10.
 NGot= 12348030976 LenX= 12347999701 LenY= 12347998419
 Requested convergence on RMS density matrix=1.00D-08 within 128 cycles.
 Requested convergence on MAX density matrix=1.00D-06.
 Requested convergence on             energy=1.00D-06.
 Level shift goal  0.100 maximum shift  0.100.
 No special actions if energy rises.
 Dynamic level shift is on during FON iterations.
 
  Hrant - CycOpn.
 

 Cycle   1  Pass 1  IDiag  1:
 E= -76.0312299421829    
 DIIS: error= 1.62D-04 at cycle   1 NSaved=   1.
 NSaved= 1 IEnMin= 1 EnMin= -76.0312299421829     IErMin= 1 ErrMin= 1.62D-04
 ErrMax= 1.62D-04  0.00D+00 EMaxC= 1.00D+00 BMatC= 2.92D-07 BMatP= 2.92D-07
 Rises=F IDIUse=1 WtCom= 1.00D+00 WtEn= 0.00D+00
 Coeff-Com:  0.100D+01
 Coeff:      0.100D+01
 Gap=     0.656 Goal=     0.100 Shift=    0.000
 RMSDP=2.90D-05 MaxDP=1.79D-04              OVMax= 2.90D-04

 Cycle   2  Pass 1  IDiag  1:
 E= -76.0312305244148     Delta-E=       -0.000000582232 Rises=F Damp=F AM=F Ri=F Fa=F
 DIIS: error= 3.53D-05 at cycle   2 NSaved=   2.
 NSaved= 2 IEnMin= 2 EnMin= -76.0312305244148     IErMin= 2 ErrMin= 3.53D-05
 ErrMax= 3.53D-05  0.00D+00 EMaxC= 1.00D+00 BMatC= 1.08D-08 BMatP= 2.92D-07
 Rises=F IDIUse=1 WtCom= 1.00D+00 WtEn= 0.00D+00
 Coeff-Com: -0.191D+00 0.119D+01
 Coeff:     -0.191D+00 0.119D+01
 Gap=     0.656 Goal=     0.100 Shift=    0.000
 RMSDP=1.02D-05 MaxDP=5.98D-05 DE=-5.82D-07 OVMax= 1.04D-04

 Cycle   3  Pass 1  IDiag  1:
 E= -76.0312305602839     Delta-E=       -0.000000035869 Rises=F Damp=F AM=F Ri=F Fa=F
 DIIS: error= 5.63D-06 at cycle   3 NSaved=   3.
 NSaved= 3 IEnMin= 3 EnMin= -76.0312305602839     IErMin= 3 ErrMin= 5.63D-06
 ErrMax= 5.63D-06  0.00D+00 EMaxC= 1.00D+00 BMatC= 3.20D-10 BMatP= 1.08D-08
 Rises=F IDIUse=1 WtCom= 1.00D+00 WtEn= 0.00D+00
 Coeff-Com:  0.261D-01-0.238D+00 0.121D+01
 Coeff:      0.261D-01-0.238D+00 0.121D+01
 Gap=     0.656 Goal=     0.100 Shift=    0.000
 RMSDP=2.65D-06 MaxDP=1.91D-05 DE=-3.59D-08 OVMax= 2.47D-05

 Cycle   4  Pass 1  IDiag  1:
 E= -76.0312305617169     Delta-E=       -0.000000001433 Rises=F Damp=F AM=F Ri=F Fa=F
 DIIS: error= 2.67D-06 at cycle   4 NSaved=   4.
 NSaved= 4 IEnMin= 4 EnMin= -76.0312305617169     IErMin= 4 ErrMin= 2.67D-06
 ErrMax= 2.67D-06  0.00D+00 EMaxC= 1.00D+00 BMatC= 4.89D-11 BMatP= 3.20D-10
 Rises=F IDIUse=1 WtCom= 1.00D+00 WtEn= 0.00D+00
 Coeff-Com:  0.179D-01-0.133D+00 0.315D+00 0.800D+00
 Coeff:      0.179D-01-0.133D+00 0.315D+00 0.800D+00
 Gap=     0.656 Goal=     0.100 Shift=    0.000
 RMSDP=4.49D-07 MaxDP=3.75D-06 DE=-1.43D-09 OVMax= 4.73D-06

 Cycle   5  Pass 1  IDiag  1:
 E= -76.0312305618283     Delta-E=       -0.000000000111 Rises=F Damp=F AM=F Ri=F Fa=F
 DIIS: error= 6.35D-07 at cycle   5 NSaved=   5.
 NSaved= 5 IEnMin= 5 EnMin= -76.0312305618283     IErMin= 5 ErrMin= 6.35D-07
 ErrMax= 6.35D-07  0.00D+00 EMaxC= 1.00D+00 BMatC= 2.93D-12 BMatP= 4.89D-11
 Rises=F IDIUse=1 WtCom= 1.00D+00 WtEn= 0.00D+00
 Coeff-Com: -0.193D-02 0.189D-01-0.106D+00 0.288D-01 0.106D+01
 Coeff:     -0.193D-02 0.189D-01-0.106D+00 0.288D-01 0.106D+01
 Gap=     0.656 Goal=     0.100 Shift=    0.000
 RMSDP=1.45D-07 MaxDP=1.11D-06 DE=-1.11D-10 OVMax= 2.26D-06

 Cycle   6  Pass 1  IDiag  1:
 E= -76.0312305618410     Delta-E=       -0.000000000013 Rises=F Damp=F AM=F Ri=F Fa=F
 DIIS: error= 1.93D-07 at cycle   6 NSaved=   6.
 NSaved= 6 IEnMin= 6 EnMin= -76.0312305618410     IErMin= 6 ErrMin= 1.93D-07
 ErrMax= 1.93D-07  0.00D+00 EMaxC= 1.00D+00 BMatC= 1.80D-13 BMatP= 2.93D-12
 Rises=F IDIUse=1 WtCom= 1.00D+00 WtEn= 0.00D+00
 Coeff-Com: -0.903D-03 0.563D-02-0.283D-02-0.670D-01-0.210D+00 0.128D+01
 Coeff:     -0.903D-03 0.563D-02-0.283D-02-0.670D-01-0.210D+00 0.128D+01
 Gap=     0.656 Goal=     0.100 Shift=    0.000
 RMSDP=4.74D-08 MaxDP=4.43D-07 DE=-1.27D-11 OVMax= 7.54D-07

 Cycle   7  Pass 1  IDiag  1:
 E= -76.0312305618422     Delta-E=       -0.000000000001 Rises=F Damp=F AM=F Ri=F Fa=F
 DIIS: error= 2.46D-08 at cycle   7 NSaved=   7.
 NSaved= 7 IEnMin= 7 EnMin= -76.0312305618422     IErMin= 7 ErrMin= 2.46D-08
 ErrMax= 2.46D-08  0.00D+00 EMaxC= 1.00D+00 BMatC= 5.87D-15 BMatP= 1.80D-13
 Rises=F IDIUse=1 WtCom= 1.00D+00 WtEn= 0.00D+00
 Coeff-Com:  0.431D-03-0.292D-02 0.493D-02 0.265D-01 0.443D-01-0.497D+00
 Coeff-Com:  0.142D+01
 Coeff:      0.431D-03-0.292D-02 0.493D-02 0.265D-01 0.443D-01-0.497D+00
 Coeff:      0.142D+01
 Gap=     0.656 Goal=     0.100 Shift=    0.000
 RMSDP=1.01D-08 MaxDP=8.46D-08 DE=-1.22D-12 OVMax= 1.31D-07

 Cycle   8  Pass 1  IDiag  1:
 E= -76.0312305618422     Delta-E=        0.000000000000 Rises=F Damp=F AM=F Ri=F Fa=F
 DIIS: error= 3.94D-09 at cycle   8 NSaved=   8.
 NSaved= 8 IEnMin= 7 EnMin= -76.0312305618422     IErMin= 8 ErrMin= 3.94D-09
 ErrMax= 3.94D-09  0.00D+00 EMaxC= 1.00D+00 BMatC= 1.01D-16 BMatP= 5.87D-15
 Rises=F IDIUse=1 WtCom= 1.00D+00 WtEn= 0.00D+00
 Coeff-Com: -0.104D-03 0.709D-03-0.136D-02-0.610D-02-0.859D-02 0.118D+00
 Coeff-Com: -0.423D+00 0.132D+01
 Coeff:     -0.104D-03 0.709D-03-0.136D-02-0.610D-02-0.859D-02 0.118D+00
 Coeff:     -0.423D+00 0.132D+01
 Gap=     0.656 Goal=     0.100 Shift=    0.000
 RMSDP=1.55D-09 MaxDP=1.50D-08 DE= 7.11D-14 OVMax= 1.47D-08

 SCF Done:  E(RHF) =  -76.0312305618     A.U. after    8 cycles
            NFock=  8  Conv=0.15D-08     -V/T= 2.0031
 KE=          75.797549 PE=        -198.983907 EE=          37.828300
 Leave Link  502 at Wed Sep  3 17:03:45 2025, MaxMem= 12348030976 cpu:              22.3 elap:               3.0
 (Enter /home/hhratchian/gaussian/gdv-20250101-j30+/gdv/l701.exe)
 ... and contract with generalized density number  0.
 Compute integral first derivatives.
 Leave Link  701 at Wed Sep  3 17:03:48 2025, MaxMem= 12348030976 cpu:              21.3 elap:               2.2
 (Enter /home/hhratchian/gaussian/gdv-20250101-j30+/gdv/l702.exe)
 L702 exits ... SP integral derivatives will be done elsewhere.
 Leave Link  702 at Wed Sep  3 17:03:49 2025, MaxMem= 12348030976 cpu:               1.1 elap:               0.6
 (Enter /home/hhratchian/gaussian/gdv-20250101-j30+/gdv/l703.exe)
 Integral derivatives from FoFJK, PRISM(SPDF).
 Compute integral first derivatives, UseDBF=F ICtDFT=           0.
 Calling FoFJK, ICntrl=      2127 FMM=F ISym2X=1 I1Cent= 0 IOpClX= 0 NMat=1 NMatS=1 NMatT=0.
 FoFJK:  IHMeth= 1 ICntrl=    2127 DoSepK=F KAlg= 0 I1Cent=           0 FoldK=F
 IRaf=         0 NMat=       1 IRICut=       1 DoRegI=T DoRafI=F ISym2E= 1 IDoP0=0 IntGTp=1.
 FoFCou: FMM=F IPFlag=           0 FMFlag=      100000 FMFlg1=         800
         NFxFlg=           0 DoJE=F BraDBF=F KetDBF=F FulRan=T
         wScrn=  0.000000 ICntrl=      2127 IOpCl=  0 I1Cent=           0 NGrid=           0
         NMat0=    1 NMatS0=      1 NMatT0=    0 NMatD0=    1 NMtDS0=    0 NMtDT0=    0
 Petite list used in FoFCou.
 Leave Link  703 at Wed Sep  3 17:03:52 2025, MaxMem= 12348030976 cpu:              33.2 elap:               3.7
 (Enter /home/hhratchian/gaussian/gdv-20250101-j30+/gdv/l716.exe)
 Dipole        =-5.68722811D-17 0.00000000D+00-8.78887987D-01
 ***** Axes restored to original set *****
 -------------------------------------------------------------------
 Center     Atomic                   Forces (Hartrees/Bohr)
 Number     Number              X              Y              Z
 -------------------------------------------------------------------
      1        8           0.000000000   -0.000000000   -0.000014929
      2        1           0.000011677    0.000000000    0.000007465
      3        1          -0.000011677    0.000000000    0.000007465
 -------------------------------------------------------------------
 Cartesian Forces:  Max     0.000014929 RMS     0.000008213
 Leave Link  716 at Wed Sep  3 17:03:53 2025, MaxMem= 12348030976 cpu:               1.2 elap:               0.8
 (Enter /home/hhratchian/gaussian/gdv-20250101-j30+/gdv/l103.exe)

 GradGradGradGradGradGradGradGradGradGradGradGradGradGradGradGradGradGrad
 Berny optimization.
 Using GEDIIS/GDIIS optimizer.
 FormGI is forming the generalized inverse of G from B-inverse, IUseBI=4.
 NTrRot=    -1 NTRed=     3 NAtoms=     3 NSkip=     0 NRank=     3 IsLin=F EigSml=8.0571D-01
 Internal  Forces:  Max     0.000013828 RMS     0.000011331
 Search for a local minimum.
 Step number   4 out of a maximum of   20
 All quantities printed in internal units (Hartrees-Bohrs-Radians)
 RMS Force = .11331D-04 SwitMx=.10000D-02 MixMth= 2
 Mixed Optimization -- En-DIIS/RFO-DIIS
 Swapping is turned off.
 Update second derivatives using D2CorX and points    1    2    3    4
 DE= -1.43D-06 DEPred=-1.45D-06 R= 9.93D-01
 TightC=F SS=  1.41D+00  RLast= 4.07D-03 DXNew= 5.7111D-01 1.2211D-02
 Trust test= 9.93D-01 RLast= 4.07D-03 DXMaxT set to 3.40D-01
 The second derivative matrix:
                          R1        R2        A1
           R1           0.68767
           R2           0.01242   0.68767
           A1           0.02701   0.02701   0.17040
 ITU=  1  1  1  0
     Eigenvalues ---    0.16766   0.67525   0.70283
 En-DIIS/RFO-DIIS/Sim-DIIS IScMMF=       -3 using points:     4    3
 RFO step:  Lambda= 0.00000000D+00.
 NNeg= 0 NGDIIS= 2 SimSw=  2.50D-01 Rises=F DC= -1.43D-06 SmlDif=  1.00D-05
 NRisDI= 0 DoIntr=F SqrtH=F CThrHd= 10.0 CDAdj=  3.0
 RMS Error=  0.1614412035D-04 NUsed= 2 OKEnD=F EnDIS=F
 InvSVX:  RCond= 4.14D-06 Info=           0 Equed=N FErr=  1.00D-15 BErr=  5.55D-17
 DidBck=FF Rises=F RFO-DIIS coefs:    1.00101   -0.00101
 GrdOpt: GIC=T ITstSp=  0 NP=   4 DidLin=F DidDIS=T IDoGRo=0 IDoRot=0
         ISwap=0 XLin= 0.000 DXMaxT= 0.340
 Iteration  1 RMS(Cart)=  0.00000868 RMS(Int)=  0.00000000
 Iteration  2 RMS(Cart)=  0.00000000 RMS(Int)=  0.00000000
 ClnCor:  largest displacement from symmetrization is 2.48D-16 for atom     3.
 Variable       Old X    -DE/DX   Delta X   Delta X   Delta X     New X
                                 (Linear)    (Quad)   (Total)
    R1        1.78212   0.00001   0.00000   0.00002   0.00002   1.78214
    R2        1.78212   0.00001   0.00000   0.00002   0.00002   1.78214
    A1        1.86959   0.00000   0.00000  -0.00000   0.00000   1.86959
         Item               Value     Threshold  Converged?
 Maximum Force            0.000014     0.000450     YES
 RMS     Force            0.000011     0.000300     YES
 Maximum Displacement     0.000018     0.001800     YES
 RMS     Displacement     0.000015     0.001200     YES
 Predicted change in Energy=-2.741491D-10
 Optimization completed.
    -- Stationary point found.
                           ----------------------------
                           !   Optimized Parameters   !
                           ! (Angstroms and Degrees)  !
 --------------------------                            --------------------------
 ! Name  Definition              Value          Derivative Info.                !
 --------------------------------------------------------------------------------
 ! R1    R(1,2)                  0.9431         -DE/DX =    0.0                 !
 ! R2    R(1,3)                  0.9431         -DE/DX =    0.0                 !
 ! A1    A(2,1,3)              107.1196         -DE/DX =    0.0                 !
 --------------------------------------------------------------------------------
 Lowest energy point so far.  Saving SCF results.
 Largest change from initial coordinates is atom    1       0.019 Angstoms.
 GradGradGradGradGradGradGradGradGradGradGradGradGradGradGradGradGradGrad

 Leave Link  103 at Wed Sep  3 17:03:54 2025, MaxMem= 12348030976 cpu:               2.1 elap:               0.7
 (Enter /home/hhratchian/gaussian/gdv-20250101-j30+/gdv/l202.exe)
                          Input orientation:                          
 ---------------------------------------------------------------------
 Center     Atomic      Atomic             Coordinates (Angstroms)
 Number     Number       Type             X           Y           Z
 ---------------------------------------------------------------------
      1          8           0        0.000000    0.000000   -0.037251
      2          1           0        0.758668    0.000000    0.522909
      3          1           0       -0.758668   -0.000000    0.522909
 ---------------------------------------------------------------------
                    Distance matrix (angstroms):
                    1          2          3
     1  O    0.000000
     2  H    0.943057   0.000000
     3  H    0.943057   1.517336   0.000000
 Stoichiometry    H2O
 Framework group  C2V[C2(O),SGV(H2)]
 Deg. of freedom     2
 Full point group                 C2V     NOp   4
 RotChk:  IX=0 Diff= 6.41D-16
 Largest Abelian subgroup         C2V     NOp   4
 Largest concise Abelian subgroup C2      NOp   2
                         Standard orientation:                         
 ---------------------------------------------------------------------
 Center     Atomic      Atomic             Coordinates (Angstroms)
 Number     Number       Type             X           Y           Z
 ---------------------------------------------------------------------
      1          8           0        0.000000   -0.000000    0.112032
      2          1           0       -0.000000    0.758668   -0.448128
      3          1           0       -0.000000   -0.758668   -0.448128
 ---------------------------------------------------------------------
 Rotational constants (GHZ):         899.7521961         435.6106291         293.5094589
 Leave Link  202 at Wed Sep  3 17:03:55 2025, MaxMem= 12348030976 cpu:               2.2 elap:               0.5
 (Enter /home/hhratchian/gaussian/gdv-20250101-j30+/gdv/l601.exe)
 Copying SCF densities to generalized density rwf, IOpCl= 0 IROHF=0.
 
 **********************************************************************
 
               Population analysis using the SCF Density.
 
 **********************************************************************
 
 Orbital symmetries:
       Occupied  (A1) (A1) (B2) (A1) (B1)
       Virtual   (A1) (B2) (A1) (B1) (B2) (A1) (B2) (A1) (B2) (A1)
                 (B1) (A1) (A2) (A1) (B1) (B2) (A1) (B2) (B1) (A2)
                 (A1) (A1) (B2) (A1)
 The electronic state is 1-A1.
 Alpha  occ. eigenvalues --      -20.57897      -1.36219      -0.73292      -0.58105      -0.50974
 Alpha virt. eigenvalues --        0.14616       0.21852       0.25040       0.25219       0.36301
 Alpha virt. eigenvalues --        0.38949       1.19257       1.28296       1.33525       1.38837
 Alpha virt. eigenvalues --        1.40513       1.45710       1.78560       1.82901       1.92330
 Alpha virt. eigenvalues --        2.56659       2.58896       2.90327       2.98901       2.99997
 Alpha virt. eigenvalues --        3.41049       3.76273       3.93293       4.35410
          Condensed to atoms (all electrons):
               1          2          3
     1  O    8.128009   0.303271   0.303271
     2  H    0.303271   0.354408  -0.024956
     3  H    0.303271  -0.024956   0.354408
 Mulliken charges:
               1
     1  O   -0.734552
     2  H    0.367276
     3  H    0.367276
 Sum of Mulliken charges=  -0.00000
 Mulliken charges with hydrogens summed into heavy atoms:
               1
     1  O   -0.000000
 Electronic spatial extent (au):  <R**2>=             19.3306
 Charge=             -0.0000 electrons
 Dipole moment (field-independent basis, Debye):
    X=             -0.0000    Y=             -0.0000    Z=             -2.2339  Tot=              2.2339
 Quadrupole moment (field-independent basis, Debye-Ang):
   XX=             -7.5920   YY=             -4.1319   ZZ=             -6.3357
   XY=              0.0000   XZ=              0.0000   YZ=              0.0000
 Traceless Quadrupole moment (field-independent basis, Debye-Ang):
   XX=             -1.5721   YY=              1.8880   ZZ=             -0.3158
   XY=              0.0000   XZ=              0.0000   YZ=              0.0000
 Octapole moment (field-independent basis, Debye-Ang**2):
  XXX=              0.0000  YYY=             -0.0000  ZZZ=             -1.6280  XYY=             -0.0000
  XXY=             -0.0000  XXZ=             -0.4658  XZZ=             -0.0000  YZZ=             -0.0000
  YYZ=             -1.4574  XYZ=             -0.0000
 Hexadecapole moment (field-independent basis, Debye-Ang**3):
 XXXX=             -6.7260 YYYY=             -5.5659 ZZZZ=             -7.0855 XXXY=             -0.0000
 XXXZ=             -0.0000 YYYX=              0.0000 YYYZ=             -0.0000 ZZZX=             -0.0000
 ZZZY=             -0.0000 XXYY=             -2.3477 XXZZ=             -2.3503 YYZZ=             -1.8004
 XXYZ=              0.0000 YYXZ=              0.0000 ZZXY=              0.0000
 N-N=           9.326827 E-N=        -198.983907  KE=          75.797549
 Symmetry A1   KE=          67.764220
 Symmetry A2   KE=           0.000000
 Symmetry B1   KE=           4.451953
 Symmetry B2   KE=           3.581376
 No NMR shielding tensors so no spin-rotation constants.
 Leave Link  601 at Wed Sep  3 17:03:57 2025, MaxMem= 12348030976 cpu:              22.1 elap:               2.2
 (Enter /home/hhratchian/gaussian/gdv-20250101-j30+/gdv/local/l9999.exe)
 Unable to Open any file for archive entry.
 1\1\GINC-NODE010\FOpt\RHF\Gen\H2O1\AABOUTAKA\03-Sep-2025\0\\#p HF gues
 s=read chkbasis geom=allcheck Opt Freq SCF=(fermi, novaracc) int=super
 finegrid\\H2O — HF/6-31+G(d,p) q=0 m=1 [1/3: Stability]\\0,1\O,0.,0.
 ,-0.0372508223\H,0.7586680525,0.,0.5229094112\H,-0.7586680525,0.,0.522
 9094112\\Version=ES64L-GDVRevJ.30+\State=1-A1\HF=-76.0312306\RMSD=1.54
 6e-09\RMSF=8.213e-06\Dipole=0.,0.,0.878888\Quadrupole=1.4036608,-1.168
 8475,-0.2348133,0.,0.,0.\PG=C02V [C2(O1),SGV(H2)]\\@
 The archive entry for this job was punched.


 ON A TOMBSTONE, "HERE LIES LESTER MOORE,
 FOUR SLUGS FROM A 44, NO LES, NO MORE".
 Leave Link 9999 at Wed Sep  3 17:03:58 2025, MaxMem= 12348030976 cpu:               2.1 elap:               1.1
 Job cpu time:       0 days  0 hours 10 minutes 11.8 seconds.
 Elapsed time:       0 days  0 hours  2 minutes 39.4 seconds.
 File lengths (MBytes):  RWF=     38 Int=      0 D2E=      0 Chk=     17 Scr=      2
 Normal termination of Gaussian DV at Wed Sep  3 17:03:58 2025.
 (Enter /home/hhratchian/gaussian/gdv-20250101-j30+/gdv/local/l1.exe)
 Link1:  Proceeding to internal job step number  2.
 ---------------------------------------------------------------
 #P Geom=AllCheck Guess=TCheck SCRF=Check GenChk RHF/ChkBas Freq
 ---------------------------------------------------------------
 1/10=4,29=7,30=1,38=1,40=1/1,3;
 2/12=2/2;
 3/5=7,6=2,11=1,14=-4,25=1,30=1,67=1,70=2,71=2,75=-7,82=7,116=1,140=1,187=7/1,2,3;
 4/5=101/1;
 5/5=2,22=13,38=6,98=1/2;
 8/6=4,10=90,11=11/1;
 10/13=10,15=4/2;
 11/6=3,8=1,9=11,15=111,16=1/1,2,10;
 10/6=1/2;
 6/7=2,8=2,9=2,10=2,28=1/1;
 7/8=1,10=1,25=1/1,2,3,16;
 1/10=4,30=1/3;
 99//99;
 Leave Link    1 at Wed Sep  3 17:04:00 2025, MaxMem= 12348030976 cpu:               1.3 elap:               0.9
 (Enter /home/hhratchian/gaussian/gdv-20250101-j30+/gdv/local/l101.exe)
 
  Hrant - IAPOps =                         0
  Hrant - IAPOp1 =                         0
  Hrant - IAPOp2 =                         0
  Hrant - DoAP   =   F
 
 Structure from the checkpoint file:  "H2O_HF_6-31+Gdp_q0_m1.chk"
 -----------------------------------------------
 H2O — HF/6-31+G(d,p) q=0 m=1 [1/3: Stability]
 -----------------------------------------------
 Charge =     0 Multiplicity =     1
 Redundant internal coordinates found in file.  (GICs).
 O,0,0.,0.,-0.0372508223
 H,0,0.7586680525,0.,0.5229094112
 H,0,-0.7586680525,0.,0.5229094112
 
 Recover connectivity data from disk.
 Reading GIC definitions from chk.
 Skipping GIC derivative info from chk, if any.
 No input coordinate modifications requested.
 Forming B-matrix definitions.
 Forming B-matrix derivative definitions.
 ITRead=  0  0  0
 MicOpt= -1 -1 -1
 NAtoms=      3 NQM=        3 NQMF=       0 NMMI=      0 NMMIF=      0
                NMic=       0 NMicF=      0.
                    Isotopes and Nuclear Properties:
 (Nuclear quadrupole moments (NQMom) in fm**2, nuclear magnetic moments (NMagM)
  in nuclear magnetons)

  Atom         1           2           3
 IAtWgt=          16           1           1
 AtmWgt=  15.9949146   1.0078250   1.0078250
 NucSpn=           0           1           1
 AtZEff=    5.600000    1.000000    1.000000
 NQMom=    0.0000000   0.0000000   0.0000000
 NMagM=    0.0000000   2.7928460   2.7928460
 AtZNuc=   8.0000000   1.0000000   1.0000000
 Leave Link  101 at Wed Sep  3 17:04:06 2025, MaxMem= 12348030976 cpu:               6.9 elap:               6.0
 (Enter /home/hhratchian/gaussian/gdv-20250101-j30+/gdv/l103.exe)

 GradGradGradGradGradGradGradGradGradGradGradGradGradGradGradGradGradGrad
 Berny optimization.
 Initialization pass.
                           ----------------------------
                           !    Initial Parameters    !
                           ! (Angstroms and Degrees)  !
 --------------------------                            --------------------------
 ! Name  Definition              Value          Derivative Info.                !
 --------------------------------------------------------------------------------
 ! R1    R(1,2)                  0.9431         calculate D2E/DX2 analytically  !
 ! R2    R(1,3)                  0.9431         calculate D2E/DX2 analytically  !
 ! A1    A(2,1,3)              107.1196         calculate D2E/DX2 analytically  !
 --------------------------------------------------------------------------------
 Trust Radius=3.00D-01 FncErr=1.00D-07 GrdErr=1.00D-07 EigMax=2.50D+02 EigMin=1.00D-04
 Number of steps in this run=      2 maximum allowed number of steps=      2.
 GradGradGradGradGradGradGradGradGradGradGradGradGradGradGradGradGradGrad

 Leave Link  103 at Wed Sep  3 17:04:07 2025, MaxMem= 12348030976 cpu:               1.1 elap:               0.5
 (Enter /home/hhratchian/gaussian/gdv-20250101-j30+/gdv/l202.exe)
                          Input orientation:                          
 ---------------------------------------------------------------------
 Center     Atomic      Atomic             Coordinates (Angstroms)
 Number     Number       Type             X           Y           Z
 ---------------------------------------------------------------------
      1          8           0        0.000000    0.000000   -0.037251
      2          1           0        0.758668    0.000000    0.522909
      3          1           0       -0.758668   -0.000000    0.522909
 ---------------------------------------------------------------------
                    Distance matrix (angstroms):
                    1          2          3
     1  O    0.000000
     2  H    0.943057   0.000000
     3  H    0.943057   1.517336   0.000000
 Stoichiometry    H2O
 Framework group  C2V[C2(O),SGV(H2)]
 Deg. of freedom     2
 Full point group                 C2V     NOp   4
 RotChk:  IX=0 Diff= 7.19D-16
 Largest Abelian subgroup         C2V     NOp   4
 Largest concise Abelian subgroup C2      NOp   2
                         Standard orientation:                         
 ---------------------------------------------------------------------
 Center     Atomic      Atomic             Coordinates (Angstroms)
 Number     Number       Type             X           Y           Z
 ---------------------------------------------------------------------
      1          8           0        0.000000    0.000000    0.112032
      2          1           0        0.000000    0.758668   -0.448128
      3          1           0       -0.000000   -0.758668   -0.448128
 ---------------------------------------------------------------------
 Rotational constants (GHZ):         899.7521961         435.6106291         293.5094589
 Leave Link  202 at Wed Sep  3 17:04:07 2025, MaxMem= 12348030976 cpu:               2.3 elap:               0.5
 (Enter /home/hhratchian/gaussian/gdv-20250101-j30+/gdv/local/l301.exe)
 Basis read from chk: "H2O_HF_6-31+Gdp_q0_m1.chk" (6D, 7F)
 No pseudopotential information found on chk file.
 There are    14 symmetry adapted cartesian basis functions of A1  symmetry.
 There are     2 symmetry adapted cartesian basis functions of A2  symmetry.
 There are     5 symmetry adapted cartesian basis functions of B1  symmetry.
 There are     8 symmetry adapted cartesian basis functions of B2  symmetry.
 There are    14 symmetry adapted basis functions of A1  symmetry.
 There are     2 symmetry adapted basis functions of A2  symmetry.
 There are     5 symmetry adapted basis functions of B1  symmetry.
 There are     8 symmetry adapted basis functions of B2  symmetry.
    29 basis functions,    46 primitive gaussians,    29 cartesian basis functions
     5 alpha electrons        5 beta electrons
       nuclear repulsion energy         9.3268269602 Hartrees.
 IExCor=         0 DFT=F Ex=HF Corr=None N6=None ScaHFX=  1.000000
 ScaDFX=  1.000000  1.000000  1.000000  1.000000  1.000000  0.000000
 ScaDFX=  0.000000  0.000000  0.000000  0.000000  0.000000  0.000000
 Grid=SuperFine IRanWt=     -1 IRanGd=            0 ICorTp=0 IEDCtl=  2004
 NAtoms=    3 NActive=    3 NUniq=    2 SFac= 2.25D+00 NAtFMM=   60 NAOKFM=F Big=F
 Integral buffers will be    131072 words long.
 Raffenetti 1 integral format.
 Two-electron integral symmetry is turned on.
 No density basis found on file 200724.
 Leave Link  301 at Wed Sep  3 17:04:09 2025, MaxMem= 12348030976 cpu:               1.6 elap:               1.1
 (Enter /home/hhratchian/gaussian/gdv-20250101-j30+/gdv/l302.exe)
 NPDir=0 NMtPBC=     1 NCelOv=     1 NCel=       1 NClECP=     1 NCelD=      1
         NCelK=      1 NCelE2=     1 NClLst=     1 CellRange=     0.0.
 One-electron integrals computed using PRISM.
 One-electron integral symmetry used in STVInt
 NBasis=    29 RedAO= T EigKep=  1.67D-02  NBF=    14     2     5     8
 NBsUse=    29 1.00D-06 EigRej= -1.00D+00 NBFU=    14     2     5     8
 Leave Link  302 at Wed Sep  3 17:04:11 2025, MaxMem= 12348030976 cpu:              15.6 elap:               1.9
 (Enter /home/hhratchian/gaussian/gdv-20250101-j30+/gdv/l303.exe)
 DipDrv:  MaxL=1.
 Leave Link  303 at Wed Sep  3 17:04:11 2025, MaxMem= 12348030976 cpu:               1.5 elap:               0.6
 (Enter /home/hhratchian/gaussian/gdv-20250101-j30+/gdv/l401.exe)
 Initial guess from the checkpoint file:  "H2O_HF_6-31+Gdp_q0_m1.chk"
 B after Tr=     0.000000   -0.000000   -0.000000
         Rot=    1.000000    0.000000    0.000000    0.000000 Ang=   0.00 deg.
 AO Guess basis will be translated and rotated to current coordinates.
 JPrj=2 DoOrth=T DoCkMO=T.
 Initial guess orbital symmetries:
       Occupied  (A1) (A1) (B2) (A1) (B1)
       Virtual   (A1) (B2) (A1) (B1) (B2) (A1) (B2) (A1) (B2) (A1)
                 (B1) (A1) (A2) (A1) (B1) (B2) (A1) (B2) (B1) (A2)
                 (A1) (A1) (B2) (A1)
 The electronic state of the initial guess is 1-A1.
 Leave Link  401 at Wed Sep  3 17:04:13 2025, MaxMem= 12348030976 cpu:               3.6 elap:               1.3
 (Enter /home/hhratchian/gaussian/gdv-20250101-j30+/gdv/local/l502.exe)
 Keep R1 ints in memory in symmetry-blocked form, NReq=2569172.
 FoFCou: FMM=F IPFlag=           0 FMFlag=           0 FMFlg1=           0
         NFxFlg=           0 DoJE=F BraDBF=F KetDBF=F FulRan=T
         wScrn=  0.000000 ICntrl=       600 IOpCl=  0 I1Cent=           0 NGrid=           0
         NMat0=    1 NMatS0=    435 NMatT0=    0 NMatD0=    1 NMtDS0=    0 NMtDT0=    0
 Petite list used in FoFCou.
 Closed shell SCF:
 Using DIIS extrapolation, IDIIS=    10.
 NGot= 12348030976 LenX= 12347999701 LenY= 12347998419
 Requested convergence on RMS density matrix=1.00D-08 within 128 cycles.
 Requested convergence on MAX density matrix=1.00D-06.
 Requested convergence on             energy=1.00D-06.
 Level shift goal  0.100 maximum shift  0.100.
 No special actions if energy rises.
 Dynamic level shift is on during FON iterations.
 
  Hrant - CycOpn.
 

 Cycle   1  Pass 1  IDiag  1:
 E= -76.0312305618423    
 DIIS: error= 3.88D-10 at cycle   1 NSaved=   1.
 NSaved= 1 IEnMin= 1 EnMin= -76.0312305618423     IErMin= 1 ErrMin= 3.88D-10
 ErrMax= 3.88D-10  0.00D+00 EMaxC= 1.00D+00 BMatC= 1.47D-18 BMatP= 1.47D-18
 Rises=F IDIUse=1 WtCom= 1.00D+00 WtEn= 0.00D+00
 Coeff-Com:  0.100D+01
 Coeff:      0.100D+01
 Gap=     0.656 Goal=     0.100 Shift=    0.000
 RMSDP=2.01D-10 MaxDP=1.98D-09              OVMax= 1.12D-09

 SCF Done:  E(RHF) =  -76.0312305618     A.U. after    1 cycles
            NFock=  1  Conv=0.20D-09     -V/T= 2.0031
 KE=          75.797549 PE=        -198.983907 EE=          37.828300
 Leave Link  502 at Wed Sep  3 17:04:16 2025, MaxMem= 12348030976 cpu:              18.4 elap:               2.7
 (Enter /home/hhratchian/gaussian/gdv-20250101-j30+/gdv/l801.exe)
 Range of M.O.s used for correlation:     1    29
 NBasis=    29 NAE=     5 NBE=     5 NFC=     0 NFV=     0
 NROrb=     29 NOA=     5 NOB=     5 NVA=    24 NVB=    24
 Leave Link  801 at Wed Sep  3 17:04:16 2025, MaxMem= 12348030976 cpu:               1.5 elap:               0.8
 (Enter /home/hhratchian/gaussian/gdv-20250101-j30+/gdv/l1002.exe)
 Minotr:  Closed shell wavefunction.
          Direct CPHF calculation.
          Differentiating once with respect to electric field.
                with respect to dipole field.
          Electric field/nuclear overlap derivatives assumed to be zero.
          Using symmetry in CPHF.
          Requested convergence is 1.0D-08 RMS, and 1.0D-07 maximum.
          Secondary convergence is 1.0D-12 RMS, and 1.0D-12 maximum.
          NewPWx=F KeepS1=T KeepF1=T KeepIn=T MapXYZ=F SortEE=F KeepMc=T.
 Keep R1 ints in memory in symmetry-blocked form, NReq=2569697.
 FoFCou: FMM=F IPFlag=           0 FMFlag=           0 FMFlg1=           0
         NFxFlg=           0 DoJE=F BraDBF=F KetDBF=F FulRan=T
         wScrn=  0.000000 ICntrl=       600 IOpCl=  0 I1Cent=           0 NGrid=           0
         NMat0=    1 NMatS0=    435 NMatT0=    0 NMatD0=    1 NMtDS0=    0 NMtDT0=    0
 Petite list used in FoFCou.
          MDV=   12348030976 using Grid=Fine.
          Solving linear equations simultaneously, MaxMat=       0.
          There are     3 degrees of freedom in the 1st order CPHF.  IDoFFX=0 NUNeed=     3.
      3 vectors produced by pass  0 Test12= 4.00D-15 3.33D-08 XBig12= 1.27D+00 7.29D-01.
 AX will form     3 AO Fock derivatives at one time.
      3 vectors produced by pass  1 Test12= 4.00D-15 3.33D-08 XBig12= 7.37D-02 1.26D-01.
      3 vectors produced by pass  2 Test12= 4.00D-15 3.33D-08 XBig12= 8.32D-03 3.69D-02.
      3 vectors produced by pass  3 Test12= 4.00D-15 3.33D-08 XBig12= 3.41D-04 8.51D-03.
      3 vectors produced by pass  4 Test12= 4.00D-15 3.33D-08 XBig12= 5.70D-06 1.35D-03.
      3 vectors produced by pass  5 Test12= 4.00D-15 3.33D-08 XBig12= 4.99D-08 9.37D-05.
      3 vectors produced by pass  6 Test12= 4.00D-15 3.33D-08 XBig12= 2.07D-10 5.89D-06.
      3 vectors produced by pass  7 Test12= 4.00D-15 3.33D-08 XBig12= 1.59D-12 4.90D-07.
      1 vectors produced by pass  8 Test12= 4.00D-15 3.33D-08 XBig12= 3.15D-14 7.18D-08.
 InvSVY:  IOpt=1 It=  1 EMax= 4.52D-17
 Solved reduced A of dimension    25 with     3 vectors.
 End of Minotr FD prop file    721 does not exist.
 End of Minotr FD prop file    722 does not exist.
 End of Minotr FD prop file    788 does not exist.
 End of Minotr FD prop file    804 does not exist.
 Leave Link 1002 at Wed Sep  3 17:05:15 2025, MaxMem= 12348030976 cpu:             792.8 elap:              58.5
 (Enter /home/hhratchian/gaussian/gdv-20250101-j30+/gdv/l1101.exe)
 Using compressed storage, NAtomX=     3.
 Will process      4 centers per pass.
 Leave Link 1101 at Wed Sep  3 17:05:53 2025, MaxMem= 12348030976 cpu:              21.1 elap:               2.2
 (Enter /home/hhratchian/gaussian/gdv-20250101-j30+/gdv/l1102.exe)
 Symmetrizing basis deriv contribution to polar:
 IMax=3 JMax=2 DiffMx= 0.00D+00
 Leave Link 1102 at Wed Sep  3 17:05:54 2025, MaxMem= 12348030976 cpu:               1.7 elap:               0.9
 (Enter /home/hhratchian/gaussian/gdv-20250101-j30+/gdv/l1110.exe)
 Forming Gx(P) for the SCF density, NAtomX=     3.
 Integral derivatives from FoFJK, PRISM(SPDF).
 Do as many integral derivatives as possible in FoFJK.
 G2DrvN: MDV=   12348030509.
 G2DrvN: will do     4 centers at a time, making    1 passes.
 PxScal for G2LodP:  IOpCl= 0 ISclPx=1 IMOff=     1 NMtTot=     4 NTT=     435 ScalPx= 2.29D+00
 Calling FoFCou, ICntrl=  3107 FMM=F I1Cent=   0 AccDes= 0.00D+00.
 FoFJK:  IHMeth= 1 ICntrl=    3107 DoSepK=F KAlg= 0 I1Cent=           0 FoldK=F
 IRaf=         0 NMat=       1 IRICut=       1 DoRegI=T DoRafI=F ISym2E= 1 IDoP0=0 IntGTp=1.
 FoFCou: FMM=F IPFlag=           0 FMFlag=      100000 FMFlg1=           0
         NFxFlg=           0 DoJE=F BraDBF=F KetDBF=F FulRan=T
         wScrn=  0.000000 ICntrl=      3107 IOpCl=  0 I1Cent=           0 NGrid=           0
         NMat0=    1 NMatS0=      1 NMatT0=    0 NMatD0=    4 NMtDS0=    3 NMtDT0=    0
 Petite list used in FoFCou.
 End of G2Drv FD prop file    721 does not exist.
 End of G2Drv FD prop file    722 does not exist.
 End of G2Drv FD prop file    788 does not exist.
 End of G2Drv FD prop file    804 does not exist.
 Leave Link 1110 at Wed Sep  3 17:05:59 2025, MaxMem= 12348030976 cpu:              41.1 elap:               4.7
 (Enter /home/hhratchian/gaussian/gdv-20250101-j30+/gdv/l1002.exe)
 Minotr:  Closed shell wavefunction.
          IDoAtm=111
          Direct CPHF calculation.
          Differentiating once with respect to electric field.
                with respect to dipole field.
          Differentiating once with respect to nuclear coordinates.
          Using symmetry in CPHF.
          Requested convergence is 1.0D-08 RMS, and 1.0D-07 maximum.
          Secondary convergence is 1.0D-12 RMS, and 1.0D-12 maximum.
          NewPWx=T KeepS1=F KeepF1=F KeepIn=T MapXYZ=F SortEE=F KeepMc=T.
 Keep R1 ints in memory in symmetry-blocked form, NReq=2569766.
 FoFCou: FMM=F IPFlag=           0 FMFlag=           0 FMFlg1=           0
         NFxFlg=           0 DoJE=F BraDBF=F KetDBF=F FulRan=T
         wScrn=  0.000000 ICntrl=       600 IOpCl=  0 I1Cent=           0 NGrid=           0
         NMat0=    1 NMatS0=    435 NMatT0=    0 NMatD0=    1 NMtDS0=    0 NMtDT0=    0
 Petite list used in FoFCou.
          MDV=   12348030976 using Grid=Fine.
          Solving linear equations simultaneously, MaxMat=       0.
          There are     9 degrees of freedom in the 1st order CPHF.  IDoFFX=4 NUNeed=     9.
 Will reuse    3 saved solutions.
      6 vectors produced by pass  0 Test12= 1.33D-15 1.11D-08 XBig12= 2.97D-02 8.53D-02.
 AX will form     6 AO Fock derivatives at one time.
      6 vectors produced by pass  1 Test12= 1.33D-15 1.11D-08 XBig12= 3.04D-03 2.46D-02.
      6 vectors produced by pass  2 Test12= 1.33D-15 1.11D-08 XBig12= 2.37D-04 9.65D-03.
      6 vectors produced by pass  3 Test12= 1.33D-15 1.11D-08 XBig12= 4.73D-06 8.78D-04.
      6 vectors produced by pass  4 Test12= 1.33D-15 1.11D-08 XBig12= 5.83D-08 1.09D-04.
      6 vectors produced by pass  5 Test12= 1.33D-15 1.11D-08 XBig12= 4.90D-10 8.81D-06.
      5 vectors produced by pass  6 Test12= 1.33D-15 1.11D-08 XBig12= 1.20D-12 4.62D-07.
      1 vectors produced by pass  7 Test12= 1.33D-15 1.11D-08 XBig12= 2.64D-15 2.97D-08.
 InvSVY:  IOpt=1 It=  1 EMax= 4.44D-16
 Solved reduced A of dimension    42 with     6 vectors.
 FullF1:  Do perturbations      1 to       9.
 Isotropic polarizability for W=    0.000000        5.98 Bohr**3.
 FullF1:  Do perturbations      1 to       6.
 End of Minotr FD prop file    721 does not exist.
 End of Minotr FD prop file    722 does not exist.
 End of Minotr FD prop file    788 does not exist.
 End of Minotr FD prop file    804 does not exist.
 Leave Link 1002 at Wed Sep  3 17:06:56 2025, MaxMem= 12348030976 cpu:             773.1 elap:              56.9
 (Enter /home/hhratchian/gaussian/gdv-20250101-j30+/gdv/l601.exe)
 Copying SCF densities to generalized density rwf, IOpCl= 0 IROHF=0.
 
 **********************************************************************
 
               Population analysis using the SCF Density.
 
 **********************************************************************
 
 Orbital symmetries:
       Occupied  (A1) (A1) (B2) (A1) (B1)
       Virtual   (A1) (B2) (A1) (B1) (B2) (A1) (B2) (A1) (B2) (A1)
                 (B1) (A1) (A2) (A1) (B1) (B2) (A1) (B2) (B1) (A2)
                 (A1) (A1) (B2) (A1)
 The electronic state is 1-A1.
 Alpha  occ. eigenvalues --      -20.57897      -1.36219      -0.73292      -0.58105      -0.50974
 Alpha virt. eigenvalues --        0.14616       0.21852       0.25040       0.25219       0.36301
 Alpha virt. eigenvalues --        0.38949       1.19257       1.28296       1.33525       1.38837
 Alpha virt. eigenvalues --        1.40513       1.45710       1.78560       1.82901       1.92330
 Alpha virt. eigenvalues --        2.56659       2.58896       2.90327       2.98901       2.99997
 Alpha virt. eigenvalues --        3.41049       3.76273       3.93293       4.35410
          Condensed to atoms (all electrons):
               1          2          3
     1  O    8.128009   0.303271   0.303271
     2  H    0.303271   0.354408  -0.024956
     3  H    0.303271  -0.024956   0.354408
 Mulliken charges:
               1
     1  O   -0.734552
     2  H    0.367276
     3  H    0.367276
 Sum of Mulliken charges=  -0.00000
 Mulliken charges with hydrogens summed into heavy atoms:
               1
     1  O   -0.000000
 APT charges:
               1
     1  O   -0.644128
     2  H    0.322064
     3  H    0.322064
 Sum of APT charges=  -0.00000
 APT charges with hydrogens summed into heavy atoms:
               1
     1  O   -0.000000
 Electronic spatial extent (au):  <R**2>=             19.3306
 Charge=             -0.0000 electrons
 Dipole moment (field-independent basis, Debye):
    X=             -0.0000    Y=             -0.0000    Z=             -2.2339  Tot=              2.2339
 Quadrupole moment (field-independent basis, Debye-Ang):
   XX=             -7.5920   YY=             -4.1319   ZZ=             -6.3357
   XY=              0.0000   XZ=              0.0000   YZ=             -0.0000
 Traceless Quadrupole moment (field-independent basis, Debye-Ang):
   XX=             -1.5721   YY=              1.8880   ZZ=             -0.3158
   XY=              0.0000   XZ=              0.0000   YZ=             -0.0000
 Octapole moment (field-independent basis, Debye-Ang**2):
  XXX=              0.0000  YYY=              0.0000  ZZZ=             -1.6280  XYY=             -0.0000
  XXY=             -0.0000  XXZ=             -0.4658  XZZ=             -0.0000  YZZ=             -0.0000
  YYZ=             -1.4574  XYZ=             -0.0000
 Hexadecapole moment (field-independent basis, Debye-Ang**3):
 XXXX=             -6.7260 YYYY=             -5.5659 ZZZZ=             -7.0855 XXXY=             -0.0000
 XXXZ=             -0.0000 YYYX=              0.0000 YYYZ=              0.0000 ZZZX=             -0.0000
 ZZZY=             -0.0000 XXYY=             -2.3477 XXZZ=             -2.3503 YYZZ=             -1.8004
 XXYZ=              0.0000 YYXZ=              0.0000 ZZXY=              0.0000
 N-N=           9.326827 E-N=        -198.983907  KE=          75.797549
 Symmetry A1   KE=          67.764220
 Symmetry A2   KE=           0.000000
 Symmetry B1   KE=           4.451953
 Symmetry B2   KE=           3.581376
 No NMR shielding tensors so no spin-rotation constants.
 Leave Link  601 at Wed Sep  3 17:07:33 2025, MaxMem= 12348030976 cpu:              21.3 elap:               2.2
 (Enter /home/hhratchian/gaussian/gdv-20250101-j30+/gdv/l701.exe)
 ... and contract with generalized density number  0.
 Compute integral second derivatives.
 Leave Link  701 at Wed Sep  3 17:07:36 2025, MaxMem= 12348030976 cpu:              29.4 elap:               2.7
 (Enter /home/hhratchian/gaussian/gdv-20250101-j30+/gdv/l702.exe)
 L702 exits ... SP integral derivatives will be done elsewhere.
 Leave Link  702 at Wed Sep  3 17:07:36 2025, MaxMem= 12348030976 cpu:               1.1 elap:               0.6
 (Enter /home/hhratchian/gaussian/gdv-20250101-j30+/gdv/l703.exe)
 Integral derivatives from FoFJK, PRISM(SPDF).
 Compute integral second derivatives, UseDBF=F ICtDFT=           0.
 Calling FoFJK, ICntrl=    100127 FMM=F ISym2X=1 I1Cent= 0 IOpClX= 0 NMat=1 NMatS=1 NMatT=0.
 FoFJK:  IHMeth= 1 ICntrl=  100127 DoSepK=F KAlg= 0 I1Cent=           0 FoldK=F
 IRaf=         0 NMat=       1 IRICut=       1 DoRegI=T DoRafI=F ISym2E= 1 IDoP0=0 IntGTp=1.
 FoFCou: FMM=F IPFlag=           0 FMFlag=      100000 FMFlg1=         800
         NFxFlg=           0 DoJE=F BraDBF=F KetDBF=F FulRan=T
         wScrn=  0.000000 ICntrl=    100127 IOpCl=  0 I1Cent=           0 NGrid=           0
         NMat0=    1 NMatS0=      1 NMatT0=    0 NMatD0=    1 NMtDS0=    0 NMtDT0=    0
 Petite list used in FoFCou.
 Leave Link  703 at Wed Sep  3 17:07:44 2025, MaxMem= 12348030976 cpu:              89.9 elap:               7.8
 (Enter /home/hhratchian/gaussian/gdv-20250101-j30+/gdv/l716.exe)
 Dipole        =-5.68722810D-17-3.90621324D-17-8.78887985D-01
 Polarizability= 5.24259957D+00 1.97880563D-16 7.07838282D+00
                 1.78192217D-16-3.40005801D-15 5.63115941D+00
 HyperPolar    = 7.42295020D-15-1.92126636D-15-1.06509549D-15
                 1.86081644D-15-2.50741162D-01-1.36403134D-15
                -1.19002451D+01-3.32248771D-16-8.76615224D-15
                -4.18802561D+00
 Full mass-weighted force constant matrix:
 Low frequencies ---  -14.6143  -14.5550  -14.4310   -0.0021    0.0015    0.0019
 Low frequencies --- 1729.5895 4149.3480 4271.5874
 Diagonal vibrational polarizability:
        0.0000000       0.1365523       1.0778666
 Diagonal vibrational hyperpolarizability:
       -0.0000000      -0.0000000      -5.6829879
 Harmonic frequencies (cm**-1), IR intensities (KM/Mole), Raman scattering
 activities (A**4/AMU), depolarization ratios for plane and unpolarized
 incident light, reduced masses (AMU), force constants (mDyne/A),
 and normal coordinates:
                      1                      2                      3
                     A1                     A1                     B2
 Frequencies --   1729.5895              4149.3480              4271.5874
 Red. masses --      1.0836                 1.0443                 1.0844
 Frc consts  --      1.9099                10.5933                11.6584
 IR Inten    --    116.0004                21.9650                92.5858
 Raman Activ --      2.8651                74.4856                36.1165
 Depolar (P) --      0.6135                 0.1167                 0.7500
 Depolar (U) --      0.7604                 0.2089                 0.8571
  Atom  AN      X      Y      Z        X      Y      Z        X      Y      Z
     1   8    -0.00   0.00  -0.07     0.00   0.00   0.05    -0.00  -0.07   0.00
     2   1     0.00   0.42   0.56     0.00   0.59  -0.39     0.00   0.57  -0.42
     3   1     0.00  -0.42   0.56    -0.00  -0.59  -0.39     0.00   0.57   0.42

 -------------------
 - Thermochemistry -
 -------------------
 Temperature 298.150 Kelvin.  Pressure 1.00000 Atm.
 Atom     1 has atomic number  8 and mass  15.99491
 Atom     2 has atomic number  1 and mass   1.00783
 Atom     3 has atomic number  1 and mass   1.00783
 Molecular mass:    18.01056 amu.
 Principal axes and moments of inertia in atomic units:
                                 1                 2                 3
     Eigenvalues --            2.005820          4.143015          6.148835
           X                  -0.000000          0.000000          1.000000
           Y                   1.000000          0.000000          0.000000
           Z                  -0.000000          1.000000         -0.000000
 This molecule is an asymmetric top.
 Rotational symmetry number  2.
 Rotational temperatures (Kelvin)     43.18130    20.90601    14.08623
 Rotational constants (GHZ):         899.75220   435.61063   293.50946
 Zero-point vibrational energy      60713.6 (Joules/Mol)
                                   14.51090 (Kcal/Mol)
 Vibrational temperatures:   2488.49  5969.99  6145.86
          (Kelvin)
 
 Zero-point correction=                           0.023125 (Hartree/Particle)
 Thermal correction to Energy=                    0.025959
 Thermal correction to Enthalpy=                  0.026903
 Thermal correction to Gibbs Free Energy=         0.005548
 Sum of electronic and zero-point Energies=            -76.008106
 Sum of electronic and thermal Energies=               -76.005272
 Sum of electronic and thermal Enthalpies=             -76.004327
 Sum of electronic and thermal Free Energies=          -76.025683
 
                     E (Thermal)             CV                S
                      KCal/Mol        Cal/Mol-Kelvin    Cal/Mol-Kelvin
 Total                   16.290              5.994             44.947
 Electronic               0.000              0.000              0.000
 Translational            0.889              2.981             34.608
 Rotational               0.889              2.981             10.334
 Vibrational             14.512              0.033              0.004
                       Q            Log10(Q)             Ln(Q)
 Total Bot       0.280735D-02         -2.551703         -5.875513
 Total V=0       0.121581D+09          8.084864         18.616088
 Vib (Bot)       0.230960D-10        -10.636464        -24.491363
 Vib (V=0)       0.100024D+01          0.000103          0.000237
 Electronic      0.100000D+01          0.000000          0.000000
 Translational   0.300431D+07          6.477745         14.915559
 Rotational      0.404591D+02          1.607016          3.700292
 
                                           H2O — HF/6-31+G(d,p) q=0 m=1 [1/3: S
 tability]
                                                             IR Spectrum
 
     4   4                                                                       1                                                   
     2   1                                                                       7                                                   
     7   4                                                                       3                                                   
     2   9                                                                       0                                                   
 
     X   X                                                                       X                                                   
     X   X                                                                       X                                                   
     X   X                                                                       X                                                   
     X   X                                                                       X                                                   
     X                                                                           X                                                   
     X                                                                           X                                                   
     X                                                                           X                                                   
     X                                                                           X                                                   
     X                                                                           X                                                   
     X                                                                           X                                                   
     X                                                                           X                                                   
     X                                                                           X                                                   
     X                                                                           X                                                   
     X                                                                           X                                                   
     X                                                                           X                                                   
     X                                                                           X                                                   
                                                                                 X                                                   
                                                                                 X                                                   
                                                                                 X                                                   
                                                                                 X                                                   
 
 
                                           H2O — HF/6-31+G(d,p) q=0 m=1 [1/3: S
 tability]
                                                            Raman Spectrum
 
     4   4                                                                       1                                                   
     2   1                                                                       7                                                   
     7   4                                                                       3                                                   
     2   9                                                                       0                                                   
 
     X   X                                                                       X                                                   
     X   X                                                                                                                           
     X   X                                                                                                                           
     X   X                                                                                                                           
     X   X                                                                                                                           
     X   X                                                                                                                           
     X   X                                                                                                                           
     X   X                                                                                                                           
     X   X                                                                                                                           
     X   X                                                                                                                           
         X                                                                                                                           
         X                                                                                                                           
         X                                                                                                                           
         X                                                                                                                           
         X                                                                                                                           
         X                                                                                                                           
         X                                                                                                                           
         X                                                                                                                           
         X                                                                                                                           
         X                                                                                                                           
 
 ***** Axes restored to original set *****
 -------------------------------------------------------------------
 Center     Atomic                   Forces (Hartrees/Bohr)
 Number     Number              X              Y              Z
 -------------------------------------------------------------------
      1        8           0.000000000   -0.000000000   -0.000014929
      2        1           0.000011677   -0.000000000    0.000007464
      3        1          -0.000011677    0.000000000    0.000007464
 -------------------------------------------------------------------
 Cartesian Forces:  Max     0.000014929 RMS     0.000008213
 Force constants in Cartesian coordinates: 
                1             2             3             4             5 
      1  0.832839D+00
      2  0.000000D+00 -0.141075D-04
      3  0.000000D+00  0.000000D+00  0.523551D+00
      4 -0.416419D+00  0.000000D+00 -0.240967D+00  0.446201D+00
      5  0.000000D+00  0.705377D-05  0.000000D+00  0.000000D+00 -0.759978D-05
      6 -0.307467D+00  0.000000D+00 -0.261776D+00  0.274217D+00  0.000000D+00
      7 -0.416419D+00  0.000000D+00  0.240967D+00 -0.297820D-01  0.000000D+00
      8  0.000000D+00  0.705377D-05  0.000000D+00  0.000000D+00  0.000000D+00
      9  0.307467D+00  0.000000D+00 -0.261776D+00 -0.332499D-01  0.000000D+00
                6             7             8             9 
      6  0.244392D+00
      7  0.332499D-01  0.446201D+00
      8  0.000000D+00  0.000000D+00 -0.759978D-05
      9  0.173831D-01 -0.274217D+00  0.000000D+00  0.244392D+00
 FormGI is forming the generalized inverse of G from B-inverse, IUseBI=4.
 NTrRot=    -1 NTRed=     3 NAtoms=     3 NSkip=     0 NRank=     3 IsLin=F EigSml=8.0571D-01
 Force constants in internal coordinates: 
                1             2             3 
      1  0.637067D+00
      2 -0.636920D-02  0.637067D+00
      3  0.280014D-01  0.280014D-01  0.170022D+00
 Leave Link  716 at Wed Sep  3 17:07:46 2025, MaxMem= 12348030976 cpu:               3.0 elap:               1.0
 (Enter /home/hhratchian/gaussian/gdv-20250101-j30+/gdv/l103.exe)

 GradGradGradGradGradGradGradGradGradGradGradGradGradGradGradGradGradGrad
 Berny optimization.
 Internal  Forces:  Max     0.000013828 RMS     0.000011331
 Search for a local minimum.
 Step number   1 out of a maximum of    2
 All quantities printed in internal units (Hartrees-Bohrs-Radians)
 Second derivative matrix not updated -- analytic derivatives used.
 The second derivative matrix:
                          R1        R2        A1
           R1           0.63707
           R2          -0.00637   0.63707
           A1           0.02800   0.02800   0.17002
 ITU=  0
     Eigenvalues ---    0.16664   0.63408   0.64344
 Angle between quadratic step and forces=   0.08 degrees.
 Linear search not attempted -- first point.
 GrdOpt: GIC=T ITstSp=  0 NP=   1 DidLin=F DidDIS=F IDoGRo=0 IDoRot=0
         ISwap=1 XLin= 0.000 DXMaxT= 0.300
 Iteration  1 RMS(Cart)=  0.00000941 RMS(Int)=  0.00000000
 Iteration  2 RMS(Cart)=  0.00000000 RMS(Int)=  0.00000000
 ClnCor:  largest displacement from symmetrization is 5.55D-16 for atom     3.
 Variable       Old X    -DE/DX   Delta X   Delta X   Delta X     New X
                                 (Linear)    (Quad)   (Total)
    R1        1.78212   0.00001   0.00000   0.00002   0.00002   1.78214
    R2        1.78212   0.00001   0.00000   0.00002   0.00002   1.78214
    A1        1.86959   0.00000   0.00000   0.00000   0.00000   1.86959
         Item               Value     Threshold  Converged?
 Maximum Force            0.000014     0.000450     YES
 RMS     Force            0.000011     0.000300     YES
 Maximum Displacement     0.000019     0.001800     YES
 RMS     Displacement     0.000016     0.001200     YES
 Predicted change in Energy=-3.037117D-10
 Optimization completed.
    -- Stationary point found.
                           ----------------------------
                           !   Optimized Parameters   !
                           ! (Angstroms and Degrees)  !
 --------------------------                            --------------------------
 ! Name  Definition              Value          Derivative Info.                !
 --------------------------------------------------------------------------------
 ! R1    R(1,2)                  0.9431         -DE/DX =    0.0                 !
 ! R2    R(1,3)                  0.9431         -DE/DX =    0.0                 !
 ! A1    A(2,1,3)              107.1196         -DE/DX =    0.0                 !
 --------------------------------------------------------------------------------
 GradGradGradGradGradGradGradGradGradGradGradGradGradGradGradGradGradGrad

 Leave Link  103 at Wed Sep  3 17:07:46 2025, MaxMem= 12348030976 cpu:               1.4 elap:               0.8
 (Enter /home/hhratchian/gaussian/gdv-20250101-j30+/gdv/local/l9999.exe)

 ----------------------------------------------------------------------

 Electric dipole moment (input orientation):
 (Debye = 10**-18 statcoulomb cm , SI units = C m)
                  (au)            (Debye)         (10**-30 SI)
   Tot        0.878888D+00      0.223391D+01      0.745152D+01
   x          0.000000D+00      0.000000D+00      0.000000D+00
   y          0.000000D+00      0.000000D+00      0.000000D+00
   z          0.878888D+00      0.223391D+01      0.745152D+01

 Dipole polarizability, Alpha (input orientation).
 (esu units = cm**3 , SI units = C**2 m**2 J**-1)
 Alpha(0;0):
               (au)            (10**-24 esu)      (10**-40 SI)
   iso        0.598405D+01      0.886744D+00      0.986636D+00
   aniso      0.167564D+01      0.248304D+00      0.276276D+00
   xx         0.707838D+01      0.104891D+01      0.116707D+01
   yx         0.000000D+00      0.000000D+00      0.000000D+00
   yy         0.524260D+01      0.776873D+00      0.864388D+00
   zx         0.000000D+00      0.000000D+00      0.000000D+00
   zy         0.000000D+00      0.000000D+00      0.000000D+00
   zz         0.563116D+01      0.834452D+00      0.928453D+00

 First dipole hyperpolarizability, Beta (input orientation).
 ||, _|_  parallel and perpendicular components, (z) with respect to z axis,
 vector components x,y,z.  Values do not include the 1/n! factor of 1/2.
 (esu units = statvolt**-1 cm**4 , SI units = C**3 m**3 J**-2)
 Beta(0;0,0):
               (au)            (10**-30 esu)      (10**-50 SI)
   || (z)     0.980341D+01      0.846938D-01      0.314333D-01
   _|_(z)     0.326780D+01      0.282313D-01      0.104778D-01
   x          0.000000D+00      0.000000D+00      0.000000D+00
   y          0.000000D+00      0.000000D+00      0.000000D+00
   z          0.490170D+02      0.423469D+00      0.157166D+00
   ||         0.980341D+01      0.846938D-01      0.314333D-01
   xxx        0.000000D+00      0.000000D+00      0.000000D+00
   xxy        0.000000D+00      0.000000D+00      0.000000D+00
   yxy        0.000000D+00      0.000000D+00      0.000000D+00
   yyy        0.000000D+00      0.000000D+00      0.000000D+00
   xxz        0.119002D+02      0.102809D+00      0.381565D-01
   yxz        0.000000D+00      0.000000D+00      0.000000D+00
   yyz        0.250741D+00      0.216621D-02      0.803967D-03
   zxz        0.000000D+00      0.000000D+00      0.000000D+00
   zyz        0.000000D+00      0.000000D+00      0.000000D+00
   zzz        0.418803D+01      0.361813D-01      0.134283D-01

 ----------------------------------------------------------------------

 Dipole orientation:
     8          0.00000000          0.00000000         -0.07039385
     1          1.43367484          0.00000000          0.98815558
     1         -1.43367484         -0.00000000          0.98815558

 Electric dipole moment (dipole orientation):
 (Debye = 10**-18 statcoulomb cm , SI units = C m)
                  (au)            (Debye)         (10**-30 SI)
   Tot        0.878888D+00      0.223391D+01      0.745152D+01
   x          0.000000D+00      0.000000D+00      0.000000D+00
   y          0.000000D+00      0.000000D+00      0.000000D+00
   z          0.878888D+00      0.223391D+01      0.745152D+01

 Dipole polarizability, Alpha (dipole orientation).
 (esu units = cm**3 , SI units = C**2 m**2 J**-1)
 Alpha(0;0):
               (au)            (10**-24 esu)      (10**-40 SI)
   iso        0.598405D+01      0.886744D+00      0.986636D+00
   aniso      0.167564D+01      0.248304D+00      0.276276D+00
   xx         0.707838D+01      0.104891D+01      0.116707D+01
   yx         0.000000D+00      0.000000D+00      0.000000D+00
   yy         0.524260D+01      0.776873D+00      0.864388D+00
   zx         0.000000D+00      0.000000D+00      0.000000D+00
   zy         0.000000D+00      0.000000D+00      0.000000D+00
   zz         0.563116D+01      0.834452D+00      0.928453D+00

 First dipole hyperpolarizability, Beta (dipole orientation).
 ||, _|_  parallel and perpendicular components, (z) with respect to z axis,
 vector components x,y,z.  Values do not include the 1/n! factor of 1/2.
 (esu units = statvolt**-1 cm**4 , SI units = C**3 m**3 J**-2)
 Beta(0;0,0):
               (au)            (10**-30 esu)      (10**-50 SI)
   || (z)     0.980341D+01      0.846938D-01      0.314333D-01
   _|_(z)     0.326780D+01      0.282313D-01      0.104778D-01
   x          0.000000D+00      0.000000D+00      0.000000D+00
   y          0.000000D+00      0.000000D+00      0.000000D+00
   z          0.490170D+02      0.423469D+00      0.157166D+00
   ||         0.980341D+01      0.846938D-01      0.314333D-01
   xxx        0.000000D+00      0.000000D+00      0.000000D+00
   xxy        0.000000D+00      0.000000D+00      0.000000D+00
   yxy        0.000000D+00      0.000000D+00      0.000000D+00
   yyy        0.000000D+00      0.000000D+00      0.000000D+00
   xxz        0.119002D+02      0.102809D+00      0.381565D-01
   yxz        0.000000D+00      0.000000D+00      0.000000D+00
   yyz        0.250741D+00      0.216621D-02      0.803967D-03
   zxz        0.000000D+00      0.000000D+00      0.000000D+00
   zyz        0.000000D+00      0.000000D+00      0.000000D+00
   zzz        0.418803D+01      0.361813D-01      0.134283D-01

 ----------------------------------------------------------------------
 Unable to Open any file for archive entry.
 1\1\GINC-NODE010\Freq\RHF\Gen\H2O1\AABOUTAKA\03-Sep-2025\0\\#P Geom=Al
 lCheck Guess=TCheck SCRF=Check GenChk RHF/ChkBas Freq\\H2O — HF/6-31
 +G(d,p) q=0 m=1 [1/3: Stability]\\0,1\O,0.,0.,-0.0372508223\H,0.758668
 0525,0.,0.5229094112\H,-0.7586680525,0.,0.5229094112\\Version=ES64L-GD
 VRevJ.30+\State=1-A1\HF=-76.0312306\RMSD=2.013e-10\RMSF=8.213e-06\Zero
 Point=0.0231246\Thermal=0.025959\ETot=-76.0052715\HTot=-76.0043274\GTo
 t=-76.025683\Dipole=0.,0.,0.878888\DipoleDeriv=-0.6092946,0.,0.,0.,-0.
 8302758,0.,0.,0.,-0.4928131,0.3046473,0.,-0.0542804,0.,0.4151379,0.,-0
 .0815804,0.,0.2464066,0.3046473,0.,0.0542804,0.,0.4151379,0.,0.0815804
 ,0.,0.2464066\Polar=7.0783828,0.,5.2425996,0.,0.,5.6311594\PolarDeriv=
 0.,0.,0.,-4.6972642,0.,0.,0.,0.,0.,0.,-0.3670679,0.,-4.664998,0.,-0.78
 29502,0.,0.,-4.7982068,4.6157687,0.,0.2987759,2.3486321,0.,1.6624867,0
 .,0.6402369,0.,0.,0.1835339,0.,2.332499,0.,0.3914751,2.2388304,0.,2.39
 91034,-4.6157687,0.,-0.2987759,2.3486321,0.,-1.6624867,0.,-0.6402369,0
 .,0.,0.1835339,0.,2.332499,0.,0.3914751,-2.2388304,0.,2.3991034\HyperP
 olar=0.,0.,0.,0.,11.9002451,0.,0.2507412,0.,0.,4.1880256\Quadrupole=1.
 4036608,-1.1688475,-0.2348133,0.,0.,0.\PG=C02V [C2(O1),SGV(H2)]\NImag=
 0\\0.83283898,0.,-0.00001411,0.,0.,0.52355119,-0.41641949,0.,-0.240967
 49,0.44620147,0.,0.00000705,0.,0.,-0.00000760,-0.30746726,0.,-0.261775
 59,0.27421738,0.,0.24439248,-0.41641949,0.,0.24096749,-0.02978198,0.,0
 .03324989,0.44620147,0.,0.00000705,0.,0.,0.00000055,0.,0.,-0.00000760,
 0.30746726,0.,-0.26177559,-0.03324989,0.,0.01738312,-0.27421738,0.,0.2
 4439248\\0.,0.,0.00001493,-0.00001168,0.,-0.00000746,0.00001168,0.,-0.
 00000746\\\@
 The archive entry for this job was punched.


 BUT 'GLORY' DOESN'T MEAN 'A NICE KNOCK DOWN ARGUMENT', ALICE OBJECTED.
 WHEN I USE A WORD, HUMPTY DUMPTY SAID, IN A RATHER SCORNFUL TONE,
 IT MEANS JUST WHAT I CHOOSE IT TO MEAN....
 NEITHER MORE NOR LESS....
 THE QUESTION IS, SAID ALICE,
 WHETHER YOU CAN MAKE WORDS MEAN SO MANY DIFFERENT THINGS...
 THE QUESTION IS, SAID HUMPTY DUMPTY,
 WHICH IS TO BE MASTER....
 THAT IS ALL.....

 ALICE THROUGH THE LOOKING GLASS
 Job cpu time:       0 days  0 hours 31 minutes 47.0 seconds.
 Elapsed time:       0 days  0 hours  2 minutes 35.3 seconds.
 File lengths (MBytes):  RWF=     38 Int=      0 D2E=      0 Chk=     18 Scr=      2
 Normal termination of Gaussian DV at Wed Sep  3 17:07:48 2025.
 Initial command:
 /home/hhratchian/gaussian/gdv-20250101-j30+/gdv/local/l1.exe "/scratch/aaboutaka/1590285/Gau-3296839.inp" -scrdir="/scratch/aaboutaka/1590285/"
 Default is to use a total of  14 processors:
                               14 via shared-memory
                                1 via Linda
 Entering Link 1 = /home/hhratchian/gaussian/gdv-20250101-j30+/gdv/local/l1.exe PID=   3298071.
  
 Copyright (c) 1988-2024, Gaussian, Inc.  All Rights Reserved.
  
 This is the private, development version of
 the Gaussian(R) DV system of programs. It is based on
 the Gaussian(R) 16 system (copyright 2016, Gaussian, Inc.),
 the Gaussian(R) 09 system (copyright 2009, Gaussian, Inc.),
 the Gaussian(R) 03 system (copyright 2003, Gaussian, Inc.),
 the Gaussian(R) 98 system (copyright 1998, Gaussian, Inc.),
 the Gaussian(R) 94 system (copyright 1995, Gaussian, Inc.),
 the Gaussian 92(TM) system (copyright 1992, Gaussian, Inc.),
 the Gaussian 90(TM) system (copyright 1990, Gaussian, Inc.),
 the Gaussian 88(TM) system (copyright 1988, Gaussian, Inc.),
 the Gaussian 86(TM) system (copyright 1986, Carnegie Mellon
 University), and the Gaussian 82(TM) system (copyright 1983,
 Carnegie Mellon University). Gaussian is a federally registered
 trademark of Gaussian, Inc.
  
 This software contains proprietary and confidential information,
 including trade secrets, belonging to Gaussian, Inc.
  
 This software is provided under written license and may be
 used, copied, transmitted, or stored only in accord with that
 written license.
  
 The following legend is applicable only to US Government
 contracts under FAR:
  
                    RESTRICTED RIGHTS LEGEND
  
 Use, reproduction and disclosure by the US Government is
 subject to restrictions as set forth in subparagraphs (a)
 and (c) of the Commercial Computer Software - Restricted
 Rights clause in FAR 52.227-19.
  
 Gaussian, Inc.
 340 Quinnipiac St., Bldg. 40, Wallingford CT 06492
  
  
 ---------------------------------------------------------------
 Warning -- This program may not be used in any manner that
 competes with the business of Gaussian, Inc. or will provide
 assistance to any competitor of Gaussian, Inc.  The licensee
 of this program is prohibited from giving any competitor of
 Gaussian, Inc. access to this program.  By using this program,
 the user acknowledges that Gaussian, Inc. is engaged in the
 business of creating and licensing software in the field of
 computational chemistry and represents and warrants to the
 licensee that it is not a competitor of Gaussian, Inc. and that
 it will not use this program in any manner prohibited above.
 ---------------------------------------------------------------
  

 Cite this work as:
 Gaussian Development Version, Revision J.30+,
 M. J. Frisch, G. W. Trucks, G. Scalmani, J. R. Cheeseman, X. Li, 
 J. Bloino, B. G. Janesko, A. V. Marenich, J. Zheng, F. Lipparini, 
 A. Jenkins, A. Liu, H. Liu, H. B. Schlegel, G. E. Scuseria, 
 M. A. Robb, V. Barone, G. A. Petersson, H. Nakatsuji, B. Mennucci, 
 C. Adamo, N. Rega, M. Caricato, H. P. Hratchian, J. V. Ortiz, 
 F. Pawlowski, A. F. Izmaylov, H. Hu, C. Liao, J. L. Sonnenberg, 
 D. Williams-Young, F. Ding, R. Gomperts, F. Egidi, J. Goings, 
 B. Peng, A. Petrone, T. Henderson, D. Ranasinghe, V. G. Zakrzewski, 
 J. Gao, G. Zheng, W. Liang, M. Hada, M. Ehara, K. Toyota, R. Fukuda, 
 J. Hasegawa, M. Ishida, T. Nakajima, Y. Honda, O. Kitao, H. Nakai, 
 T. Vreven, K. Throssell, J. A. Montgomery, Jr., J. E. Peralta, 
 F. Ogliaro, M. J. Bearpark, J. J. Heyd, E. N. Brothers, K. N. Kudin, 
 V. N. Staroverov, T. A. Keith, R. Kobayashi, J. Normand, 
 K. Raghavachari, A. P. Rendell, J. C. Burant, S. S. Iyengar, 
 M. Cossi, J. M. Millam, M. Klene, R. Cammi, R. L. Martin, O. Farkas, 
 J. B. Foresman, and D. J. Fox, Gaussian, Inc., Wallingford CT, 2024.
 
 *******************************************
 Gaussian DV:  ES64L-GDVRevJ.30+ 18-Dec-2024
                  3-Sep-2025 
 *******************************************
 %chk=H2O_HF_6-31+Gdp_q0_m1.chk
 --------------------------------------------------
 #p HF stable=opt guess=read chkbasis geom=allcheck
 --------------------------------------------------
 1/29=7,38=1,172=1/1;
 2/12=2/2;
 3/5=7,6=2,11=2,14=-4,25=1,30=1,67=1,116=-2/1,2,3;
 4/5=1/1;
 5/5=2,38=6/2;
 6/7=2,8=2,9=2,10=2,28=1/1;
 8/6=1,10=90,11=11/1;
 9/8=-3,42=1,46=1/14;
 5/5=2,8=3,17=40,38=6/8(-2);
 6/7=2,8=2,9=2,10=2,28=1/1;
 99/5=1,9=1/99;
 Leave Link    1 at Wed Sep  3 17:07:49 2025, MaxMem=           0 cpu:               2.2 elap:               1.0
 (Enter /home/hhratchian/gaussian/gdv-20250101-j30+/gdv/local/l101.exe)
 
  Hrant - IAPOps =                         0
  Hrant - IAPOp1 =                         0
  Hrant - IAPOp2 =                         0
  Hrant - DoAP   =   F
 
 Structure from the checkpoint file:  "H2O_HF_6-31+Gdp_q0_m1.chk"
 -----------------------------------------------
 H2O — HF/6-31+G(d,p) q=0 m=1 [1/3: Stability]
 -----------------------------------------------
 Charge =     0 Multiplicity =     1
 Redundant internal coordinates found in file.  (GICs).
 O,0,0.,0.,-0.0372508223
 H,0,0.7586680525,0.,0.5229094112
 H,0,-0.7586680525,0.,0.5229094112
 
 Recover connectivity data from disk.
 Reading GIC definitions from chk.
 Reading GIC derivative info from chk.
 ITRead=  0  0  0
 MicOpt= -1 -1 -1
                           ----------------------------
                           !    Current Parameters    !
                           ! (Angstroms and Degrees)  !
 --------------------------                            --------------------------
 ! Name  Definition              Value                                          !
 --------------------------------------------------------------------------------
 ! R1    R(1,2)                  0.9431                                         !
 ! R2    R(1,3)                  0.9431                                         !
 ! A1    A(2,1,3)              107.1196                                         !
 --------------------------------------------------------------------------------
 NAtoms=      3 NQM=        3 NQMF=       0 NMMI=      0 NMMIF=      0
                NMic=       0 NMicF=      0.
                    Isotopes and Nuclear Properties:
 (Nuclear quadrupole moments (NQMom) in fm**2, nuclear magnetic moments (NMagM)
  in nuclear magnetons)

  Atom         1           2           3
 IAtWgt=          16           1           1
 AtmWgt=  15.9949146   1.0078250   1.0078250
 NucSpn=           0           1           1
 AtZEff=    5.600000    1.000000    1.000000
 NQMom=    0.0000000   0.0000000   0.0000000
 NMagM=    0.0000000   2.7928460   2.7928460
 AtZNuc=   8.0000000   1.0000000   1.0000000
 Leave Link  101 at Wed Sep  3 17:07:54 2025, MaxMem= 12348030976 cpu:               6.1 elap:               5.2
 (Enter /home/hhratchian/gaussian/gdv-20250101-j30+/gdv/l202.exe)
                          Input orientation:                          
 ---------------------------------------------------------------------
 Center     Atomic      Atomic             Coordinates (Angstroms)
 Number     Number       Type             X           Y           Z
 ---------------------------------------------------------------------
      1          8           0        0.000000    0.000000   -0.037251
      2          1           0        0.758668    0.000000    0.522909
      3          1           0       -0.758668   -0.000000    0.522909
 ---------------------------------------------------------------------
                    Distance matrix (angstroms):
                    1          2          3
     1  O    0.000000
     2  H    0.943057   0.000000
     3  H    0.943057   1.517336   0.000000
 Stoichiometry    H2O
 Framework group  C2V[C2(O),SGV(H2)]
 Deg. of freedom     2
 Full point group                 C2V     NOp   4
 RotChk:  IX=0 Diff= 2.67D-16
 Largest Abelian subgroup         C2V     NOp   4
 Largest concise Abelian subgroup C2      NOp   2
                         Standard orientation:                         
 ---------------------------------------------------------------------
 Center     Atomic      Atomic             Coordinates (Angstroms)
 Number     Number       Type             X           Y           Z
 ---------------------------------------------------------------------
      1          8           0       -0.000000    0.000000    0.112032
      2          1           0        0.000000    0.758668   -0.448128
      3          1           0       -0.000000   -0.758668   -0.448128
 ---------------------------------------------------------------------
 Rotational constants (GHZ):         899.7521961         435.6106291         293.5094589
 Leave Link  202 at Wed Sep  3 17:07:55 2025, MaxMem= 12348030976 cpu:               2.2 elap:               0.5
 (Enter /home/hhratchian/gaussian/gdv-20250101-j30+/gdv/local/l301.exe)
 Basis read from chk: "H2O_HF_6-31+Gdp_q0_m1.chk" (6D, 7F)
 No pseudopotential information found on chk file.
 There are    14 symmetry adapted cartesian basis functions of A1  symmetry.
 There are     2 symmetry adapted cartesian basis functions of A2  symmetry.
 There are     5 symmetry adapted cartesian basis functions of B1  symmetry.
 There are     8 symmetry adapted cartesian basis functions of B2  symmetry.
 There are    14 symmetry adapted basis functions of A1  symmetry.
 There are     2 symmetry adapted basis functions of A2  symmetry.
 There are     5 symmetry adapted basis functions of B1  symmetry.
 There are     8 symmetry adapted basis functions of B2  symmetry.
    29 basis functions,    46 primitive gaussians,    29 cartesian basis functions
     5 alpha electrons        5 beta electrons
       nuclear repulsion energy         9.3268269602 Hartrees.
 IExCor=         0 DFT=F Ex=HF Corr=None N6=None ScaHFX=  1.000000
 ScaDFX=  1.000000  1.000000  1.000000  1.000000  1.000000  0.000000
 ScaDFX=  0.000000  0.000000  0.000000  0.000000  0.000000  0.000000
 Grid=UltraFine IRanWt=     -1 IRanGd=            0 ICorTp=0 IEDCtl=  2004
 NAtoms=    3 NActive=    3 NUniq=    2 SFac= 2.25D+00 NAtFMM=   60 NAOKFM=F Big=F
 Integral buffers will be    131072 words long.
 Raffenetti 2 integral format.
 Two-electron integral symmetry is turned on.
 No density basis found on file 200724.
 Leave Link  301 at Wed Sep  3 17:07:56 2025, MaxMem= 12348030976 cpu:               1.8 elap:               1.2
 (Enter /home/hhratchian/gaussian/gdv-20250101-j30+/gdv/l302.exe)
 NPDir=0 NMtPBC=     1 NCelOv=     1 NCel=       1 NClECP=     1 NCelD=      1
         NCelK=      1 NCelE2=     1 NClLst=     1 CellRange=     0.0.
 One-electron integrals computed using PRISM.
 One-electron integral symmetry used in STVInt
 NBasis=    29 RedAO= T EigKep=  1.67D-02  NBF=    14     2     5     8
 NBsUse=    29 1.00D-06 EigRej= -1.00D+00 NBFU=    14     2     5     8
 Leave Link  302 at Wed Sep  3 17:07:58 2025, MaxMem= 12348030976 cpu:              15.4 elap:               1.9
 (Enter /home/hhratchian/gaussian/gdv-20250101-j30+/gdv/l303.exe)
 DipDrv:  MaxL=1.
 Leave Link  303 at Wed Sep  3 17:07:59 2025, MaxMem= 12348030976 cpu:               1.5 elap:               0.6
 (Enter /home/hhratchian/gaussian/gdv-20250101-j30+/gdv/l401.exe)
 Initial guess from the checkpoint file:  "H2O_HF_6-31+Gdp_q0_m1.chk"
 B after Tr=    -0.000000   -0.000000    0.000000
         Rot=    1.000000   -0.000000    0.000000    0.000000 Ang=   0.00 deg.
 AO Guess basis will be translated and rotated to current coordinates.
 JPrj=2 DoOrth=T DoCkMO=T.
 Initial guess orbital symmetries:
       Occupied  (A1) (A1) (B2) (A1) (B1)
       Virtual   (A1) (B2) (A1) (B1) (B2) (A1) (B2) (A1) (B2) (A1)
                 (B1) (A1) (A2) (A1) (B1) (B2) (A1) (B2) (B1) (A2)
                 (A1) (A1) (B2) (A1)
 The electronic state of the initial guess is 1-A1.
 Leave Link  401 at Wed Sep  3 17:08:01 2025, MaxMem= 12348030976 cpu:               3.3 elap:               1.2
 (Enter /home/hhratchian/gaussian/gdv-20250101-j30+/gdv/local/l502.exe)
 Keep R1 ints in memory in symmetry-blocked form, NReq=2569172.
 FoFCou: FMM=F IPFlag=           0 FMFlag=           0 FMFlg1=           0
         NFxFlg=           0 DoJE=F BraDBF=F KetDBF=F FulRan=T
         wScrn=  0.000000 ICntrl=       600 IOpCl=  0 I1Cent=           0 NGrid=           0
         NMat0=    1 NMatS0=    435 NMatT0=    0 NMatD0=    1 NMtDS0=    0 NMtDT0=    0
 Petite list used in FoFCou.
 Closed shell SCF:
 Using DIIS extrapolation, IDIIS=  1040.
 NGot= 12348030976 LenX= 12347999701 LenY= 12347998419
 Requested convergence on RMS density matrix=1.00D-08 within 128 cycles.
 Requested convergence on MAX density matrix=1.00D-06.
 Requested convergence on             energy=1.00D-06.
 No special actions if energy rises.
 
  Hrant - CycOpn.
 

 Cycle   1  Pass 1  IDiag  1:
 E= -76.0312305618424    
 DIIS: error= 1.60D-10 at cycle   1 NSaved=   1.
 NSaved= 1 IEnMin= 1 EnMin= -76.0312305618424     IErMin= 1 ErrMin= 1.60D-10
 ErrMax= 1.60D-10  0.00D+00 EMaxC= 1.00D-01 BMatC= 2.01D-19 BMatP= 2.01D-19
 Rises=F IDIUse=1 WtCom= 1.00D+00 WtEn= 0.00D+00
 Coeff-Com:  0.100D+01
 Coeff:      0.100D+01
 Gap=     0.656 Goal=   None    Shift=    0.000
 Skip diagonalization as Alpha Fock matrix is already diagonal.
 RMSDP=8.46D-20 MaxDP=1.73D-18              OVMax= 0.00D+00

 SCF Done:  E(RHF) =  -76.0312305618     A.U. after    1 cycles
            NFock=  1  Conv=0.85D-19     -V/T= 2.0031
 KE=          75.797549 PE=        -198.983907 EE=          37.828300
 Leave Link  502 at Wed Sep  3 17:08:04 2025, MaxMem= 12348030976 cpu:              18.6 elap:               2.7
 (Enter /home/hhratchian/gaussian/gdv-20250101-j30+/gdv/l601.exe)
 Copying SCF densities to generalized density rwf, IOpCl= 0 IROHF=0.
 
 **********************************************************************
 
               Population analysis using the SCF Density.
 
 **********************************************************************
 
 Orbital symmetries:
       Occupied  (A1) (A1) (B2) (A1) (B1)
       Virtual   (A1) (B2) (A1) (B1) (B2) (A1) (B2) (A1) (B2) (A1)
                 (B1) (A1) (A2) (A1) (B1) (B2) (A1) (B2) (B1) (A2)
                 (A1) (A1) (B2) (A1)
 The electronic state is 1-A1.
 Alpha  occ. eigenvalues --      -20.57897      -1.36219      -0.73292      -0.58105      -0.50974
 Alpha virt. eigenvalues --        0.14616       0.21852       0.25040       0.25219       0.36301
 Alpha virt. eigenvalues --        0.38949       1.19257       1.28296       1.33525       1.38837
 Alpha virt. eigenvalues --        1.40513       1.45710       1.78560       1.82901       1.92330
 Alpha virt. eigenvalues --        2.56659       2.58896       2.90327       2.98901       2.99997
 Alpha virt. eigenvalues --        3.41049       3.76273       3.93293       4.35410
          Condensed to atoms (all electrons):
               1          2          3
     1  O    8.128009   0.303271   0.303271
     2  H    0.303271   0.354408  -0.024956
     3  H    0.303271  -0.024956   0.354408
 Mulliken charges:
               1
     1  O   -0.734552
     2  H    0.367276
     3  H    0.367276
 Sum of Mulliken charges=  -0.00000
 Mulliken charges with hydrogens summed into heavy atoms:
               1
     1  O   -0.000000
 Electronic spatial extent (au):  <R**2>=             19.3306
 Charge=              0.0000 electrons
 Dipole moment (field-independent basis, Debye):
    X=             -0.0000    Y=              0.0000    Z=             -2.2339  Tot=              2.2339
 Quadrupole moment (field-independent basis, Debye-Ang):
   XX=             -7.5920   YY=             -4.1319   ZZ=             -6.3357
   XY=              0.0000   XZ=              0.0000   YZ=             -0.0000
 Traceless Quadrupole moment (field-independent basis, Debye-Ang):
   XX=             -1.5721   YY=              1.8880   ZZ=             -0.3158
   XY=              0.0000   XZ=              0.0000   YZ=             -0.0000
 Octapole moment (field-independent basis, Debye-Ang**2):
  XXX=              0.0000  YYY=             -0.0000  ZZZ=             -1.6280  XYY=             -0.0000
  XXY=              0.0000  XXZ=             -0.4658  XZZ=             -0.0000  YZZ=             -0.0000
  YYZ=             -1.4574  XYZ=             -0.0000
 Hexadecapole moment (field-independent basis, Debye-Ang**3):
 XXXX=             -6.7260 YYYY=             -5.5659 ZZZZ=             -7.0855 XXXY=             -0.0000
 XXXZ=             -0.0000 YYYX=              0.0000 YYYZ=              0.0000 ZZZX=             -0.0000
 ZZZY=              0.0000 XXYY=             -2.3477 XXZZ=             -2.3503 YYZZ=             -1.8004
 XXYZ=             -0.0000 YYXZ=              0.0000 ZZXY=              0.0000
 N-N=           9.326827 E-N=        -198.983907  KE=          75.797549
 Symmetry A1   KE=          67.764220
 Symmetry A2   KE=           0.000000
 Symmetry B1   KE=           4.451953
 Symmetry B2   KE=           3.581376
 No NMR shielding tensors so no spin-rotation constants.
 Leave Link  601 at Wed Sep  3 17:08:06 2025, MaxMem= 12348030976 cpu:              21.9 elap:               2.1
 (Enter /home/hhratchian/gaussian/gdv-20250101-j30+/gdv/l801.exe)
 Range of M.O.s used for correlation:     1    29
 NBasis=    29 NAE=     5 NBE=     5 NFC=     0 NFV=     0
 NROrb=     29 NOA=     5 NOB=     5 NVA=    24 NVB=    24
 Leave Link  801 at Wed Sep  3 17:08:07 2025, MaxMem= 12348030976 cpu:               1.4 elap:               0.7
 (Enter /home/hhratchian/gaussian/gdv-20250101-j30+/gdv/l914.exe)
 RHF ground state
 Doing stability rather than CIS.
 Keep R1 and R2 ints in memory in symmetry-blocked form, NReq=2569519.
 FoFCou: FMM=F IPFlag=           0 FMFlag=           0 FMFlg1=           0
         NFxFlg=           0 DoJE=F BraDBF=F KetDBF=F FulRan=T
         wScrn=  0.000000 ICntrl=       600 IOpCl=  0 I1Cent=           0 NGrid=           0
         NMat0=    1 NMatS0=    435 NMatT0=    0 NMatD0=    1 NMtDS0=    0 NMtDT0=    0
 Petite list used in FoFCou.
 MDV= 12348030976 DFT=F IDoStb=1 Mixed=F DoRPA=F DoScal=F NonHer=F
 Making orbital integer symmetry assigments:
 Orbital symmetries:
       Occupied  (A1) (A1) (B2) (A1) (B1)
       Virtual   (A1) (B2) (A1) (B1) (B2) (A1) (B2) (A1) (B2) (A1)
                 (B1) (A1) (A2) (A1) (B1) (B2) (A1) (B2) (B1) (A2)
                 (A1) (A1) (B2) (A1)
 The electronic state is 1-A1.
    24 initial guesses have been made.
 Convergence on wavefunction:    0.001000000000000
 Davidson Disk Diagonalization:  ConvIn= 1.00D-03 SkipCon=T Conv= 1.00D-03.
 Max sub-space:   480 initial roots:    24 roots to seek:     1 dimension of matrix:          240
 Iteration     1 Dimension    24 NMult     0 NNew     24
 CISAX will form    24 AO SS matrices at one time.
 NMat=    24 NSing=    12 JSym2X= 2.
 New state      1 was old state      2
 Excitation Energies [eV] at current iteration:
 Root      1 :     8.158660156212806
 Root      2 :     9.873789273775010
 Root      3 :    10.042233198384597
 Root      4 :    10.645487460214309
 Root      5 :    10.840151145477371
 Root      6 :    11.354683928511815
 Root      7 :    11.881523422414284
 Root      8 :    11.884569208305699
 Root      9 :    11.980844145348156
 Root     10 :    13.131735190755508
 Root     11 :    13.242736104144889
 Root     12 :    13.923999416015716
 Root     13 :    14.174536078366661
 Root     14 :    14.285736798148708
 Root     15 :    14.448245261202556
 Root     16 :    14.584195137828939
 Root     17 :    14.711635080678199
 Root     18 :    15.174443752991579
 Root     19 :    15.541839969829676
 Root     20 :    15.683907291434068
 Root     21 :    16.403610056820064
 Root     22 :    16.816889427195001
 Root     23 :    18.563809453696351
 Root     24 :    21.591621015077184
 Iteration     2 Dimension    48 NMult    24 NNew     24
 CISAX will form    24 AO SS matrices at one time.
 NMat=    24 NSing=    12 JSym2X= 2.
 Root      1 not converged, maximum delta is    0.051514240064635
 Excitation Energies [eV] at current iteration:
 Root      1 :     7.806921224486166   Change is   -0.351738931726639
 Root      2 :     9.253322227721249   Change is   -0.788910970663349
 Root      3 :     9.750434924169472   Change is   -0.123354349605537
 Root      4 :    10.113037607897281   Change is   -0.532449852317028
 Root      5 :    10.302842639974134   Change is   -0.537308505503237
 Root      6 :    10.462792398954852   Change is   -0.891891529556962
 Root      7 :    11.690990682972782   Change is   -0.190532739441502
 Root      8 :    11.734129594308468   Change is   -0.150439613997229
 Root      9 :    11.760169449918770   Change is   -0.220674695429386
 Root     10 :    12.863561300692790   Change is   -0.379174803452099
 Root     11 :    13.097986204753537   Change is   -0.033748986001971
 Root     12 :    13.411481920407446   Change is   -0.512517495608268
 Root     13 :    13.855188695005877   Change is   -0.729006442823062
 Root     14 :    13.939020034541299   Change is   -0.235516043825363
 Root     15 :    14.185175355872733   Change is   -0.100561442275975
 Root     16 :    14.344992018890503   Change is   -0.103253242312054
 Root     17 :    14.660986924030224   Change is   -0.050648156647974
 Root     18 :    15.093001235361472   Change is   -0.081442517630106
 Root     19 :    15.371284938481857   Change is   -0.170555031347817
 Root     20 :    15.457901495755296   Change is   -0.226005795678771
 Root     21 :    15.674430573354208   Change is   -5.917190441722976
 Root     22 :    16.045169609718737   Change is   -0.358440447101327
 Root     23 :    16.369401892685275   Change is   -0.447487534509725
 Root     24 :    17.412578832856024   Change is   -1.151230620840330
 Iteration     3 Dimension    54 NMult    48 NNew      6
 CISAX will form     6 AO SS matrices at one time.
 NMat=     6 NSing=     3 JSym2X= 2.
 Root      1 not converged, maximum delta is    0.006067377755534
 Excitation Energies [eV] at current iteration:
 Root      1 :     7.802954353023496   Change is   -0.003966871462669
 Root      2 :     8.903953215153807   Change is   -0.349369012567441
 Root      3 :     9.750134499666386   Change is   -0.000300424503086
 Root      4 :    10.083237209308548   Change is   -0.029800398588733
 Root      5 :    11.685482496564861   Change is   -0.005508186407921
 Root      6 :    11.732740288921246   Change is   -0.001389305387224
 Iteration     4 Dimension    60 NMult    54 NNew      6
 CISAX will form     6 AO SS matrices at one time.
 NMat=     6 NSing=     3 JSym2X= 2.
 Root      1 has converged.
 Excitation Energies [eV] at current iteration:
 Root      1 :     7.802941139563547   Change is   -0.000013213459950
 Root      2 :     8.850921624510299   Change is   -0.053031590643509
 Root      3 :     9.750132816368403   Change is   -0.000001683297984
 Root      4 :    10.079982014905019   Change is   -0.003255194403529
 Root      5 :    11.683786109169260   Change is   -0.001696387395601
 Root      6 :    11.723795793911510   Change is   -0.008944495009735
 Convergence achieved on expansion vectors.
 1PDM for each excited state written to RWF  633
 Ground to excited state transition densities written to RWF  633

 ***********************************************************************
 Stability analysis using <AA,BB:AA,BB> singles matrix:
 ***********************************************************************

 Eigenvectors of the stability matrix:
 
 Eigenvector   1:      Triplet-B1   Eigenvalue= 0.2867528  <S**2>=2.000
       5 ->  6         0.64946
       5 -> 11        -0.23465
 The wavefunction is stable under the perturbations considered.
 Leave Link  914 at Wed Sep  3 17:08:10 2025, MaxMem= 12348030976 cpu:              28.4 elap:               3.6
 (Enter /home/hhratchian/gaussian/gdv-20250101-j30+/gdv/l508.exe)
 The wavefunction is already stable.
 Leave Link  508 at Wed Sep  3 17:08:11 2025, MaxMem= 12348030976 cpu:               0.5 elap:               0.3
 (Enter /home/hhratchian/gaussian/gdv-20250101-j30+/gdv/l601.exe)
 Copying SCF densities to generalized density rwf, IOpCl= 0 IROHF=0.
 
 **********************************************************************
 
               Population analysis using the SCF Density.
 
 **********************************************************************
 
 Orbital symmetries:
       Occupied  (A1) (A1) (B2) (A1) (B1)
       Virtual   (A1) (B2) (A1) (B1) (B2) (A1) (B2) (A1) (B2) (A1)
                 (B1) (A1) (A2) (A1) (B1) (B2) (A1) (B2) (B1) (A2)
                 (A1) (A1) (B2) (A1)
 The electronic state is 1-A1.
 Alpha  occ. eigenvalues --      -20.57897      -1.36219      -0.73292      -0.58105      -0.50974
 Alpha virt. eigenvalues --        0.14616       0.21852       0.25040       0.25219       0.36301
 Alpha virt. eigenvalues --        0.38949       1.19257       1.28296       1.33525       1.38837
 Alpha virt. eigenvalues --        1.40513       1.45710       1.78560       1.82901       1.92330
 Alpha virt. eigenvalues --        2.56659       2.58896       2.90327       2.98901       2.99997
 Alpha virt. eigenvalues --        3.41049       3.76273       3.93293       4.35410
          Condensed to atoms (all electrons):
               1          2          3
     1  O    8.128009   0.303271   0.303271
     2  H    0.303271   0.354408  -0.024956
     3  H    0.303271  -0.024956   0.354408
 Mulliken charges:
               1
     1  O   -0.734552
     2  H    0.367276
     3  H    0.367276
 Sum of Mulliken charges=  -0.00000
 Mulliken charges with hydrogens summed into heavy atoms:
               1
     1  O   -0.000000
 Electronic spatial extent (au):  <R**2>=             19.3306
 Charge=              0.0000 electrons
 Dipole moment (field-independent basis, Debye):
    X=             -0.0000    Y=              0.0000    Z=             -2.2339  Tot=              2.2339
 Quadrupole moment (field-independent basis, Debye-Ang):
   XX=             -7.5920   YY=             -4.1319   ZZ=             -6.3357
   XY=              0.0000   XZ=              0.0000   YZ=             -0.0000
 Traceless Quadrupole moment (field-independent basis, Debye-Ang):
   XX=             -1.5721   YY=              1.8880   ZZ=             -0.3158
   XY=              0.0000   XZ=              0.0000   YZ=             -0.0000
 Octapole moment (field-independent basis, Debye-Ang**2):
  XXX=              0.0000  YYY=             -0.0000  ZZZ=             -1.6280  XYY=             -0.0000
  XXY=              0.0000  XXZ=             -0.4658  XZZ=             -0.0000  YZZ=             -0.0000
  YYZ=             -1.4574  XYZ=             -0.0000
 Hexadecapole moment (field-independent basis, Debye-Ang**3):
 XXXX=             -6.7260 YYYY=             -5.5659 ZZZZ=             -7.0855 XXXY=             -0.0000
 XXXZ=             -0.0000 YYYX=              0.0000 YYYZ=              0.0000 ZZZX=             -0.0000
 ZZZY=              0.0000 XXYY=             -2.3477 XXZZ=             -2.3503 YYZZ=             -1.8004
 XXYZ=             -0.0000 YYXZ=              0.0000 ZZXY=              0.0000
 N-N=           9.326827 E-N=        -198.983907  KE=          75.797549
 Symmetry A1   KE=          67.764220
 Symmetry A2   KE=           0.000000
 Symmetry B1   KE=           4.451953
 Symmetry B2   KE=           3.581376
 No NMR shielding tensors so no spin-rotation constants.
 Leave Link  601 at Wed Sep  3 17:08:13 2025, MaxMem= 12348030976 cpu:              22.1 elap:               2.2
 (Enter /home/hhratchian/gaussian/gdv-20250101-j30+/gdv/local/l9999.exe)
 Unable to Open any file for archive entry.
 1\1\GINC-NODE010\Stability\RHF\Gen\H2O1\AABOUTAKA\03-Sep-2025\0\\#p HF
  stable=opt guess=read chkbasis geom=allcheck\\H2O — HF/6-31+G(d,p) 
 q=0 m=1 [1/3: Stability]\\0,1\O,0,0.,0.,-0.0372508223\H,0,0.7586680525
 ,0.,0.5229094112\H,0,-0.7586680525,0.,0.5229094112\\Version=ES64L-GDVR
 evJ.30+\State=1-A1\HF=-76.0312306\RMSD=8.460e-20\Dipole=0.,0.,0.878888
 \Quadrupole=1.4036608,-1.1688475,-0.2348133,0.,0.,0.\PG=C02V [C2(O1),S
 GV(H2)]\\@
 The archive entry for this job was punched.


 WHAT THE SLIME CONTAINS, THE GLOWING REVEALS
 BY THE FLAME'S BRIGHT HUE WHEN YOU IGNITE IT.
   --  LEONARD THURNEYSSER, 1531-1596
 DESCRIBING HIS FLAME PHOTOLYSIS ANALYTIC METHOD
 Job cpu time:       0 days  0 hours  2 minutes 12.3 seconds.
 Elapsed time:       0 days  0 hours  0 minutes 24.4 seconds.
 File lengths (MBytes):  RWF=     30 Int=      0 D2E=      0 Chk=     18 Scr=      2
 Normal termination of Gaussian DV at Wed Sep  3 17:08:14 2025.
