%chk=ch2o_neutral.chk
#p B3LYP/6-31G opt freq 

CH2O neutral

0 1
C       0.000000    0.000000    0.000000
O       0.000000    0.000000    1.210000
H       0.000000    0.942000   -0.588000
H       0.000000   -0.942000   -0.588000


