%chk=ch2o_neutral.chk
#p B3LYP/6-31G opt freq 

CH2O neutral

0 1
6        0.000000    0.000000   -0.005920
8       -0.000000   -0.000000    1.225690
1        0.000000    0.933400   -0.592885
1       -0.000000   -0.933400   -0.592885

