%chk=h2o_anion.chk
#p B3LYP/6-31G(d) freq 

H2O anion 

-1 2
O   0.000000   0.000000   0.117790
H   0.000000   0.757160  -0.471160
H   0.000000  -0.757160  -0.471160


