%chk=ch2o_anion.chk
#p B3LYP/6-31G opt freq 

CH2O anion

-1 2
6       -0.133938   -0.011101   -0.001098
8        0.045131    0.073984    1.318475
1        0.039255    0.888820   -0.655652
1        0.149552   -0.951703   -0.551725



