%chk=h2o_neutral.chk
#p uB3LYP/STO-3G freq 

H2O neutral

0 1
O   0.000000   0.000000   0.117790
H   0.000000   0.757160  -0.471160
H   0.000000  -0.757160  -0.471160

